CONTCAR1-ZrO2-+H-propyl-C1              
   1.00000000000000     
    15.1106004714999997    0.0000000000000000    0.0000000000000000
    -1.0800946320000000   12.1474763860999992    0.0000000000000000
     0.0000000000000000    0.0000000000000000   23.9724006653000004
   Zr   O    H    C 
    49    98     8     3
Selective dynamics
Direct
  0.0884800019999972  0.3208299900000000  0.0382400000000018   F   F   F
  0.3384799809999990  0.8208300020000010  0.0382400000000018   F   F   F
  0.5884799860000030  0.3208299900000000  0.0382400000000018   F   F   F
  0.8384800119999980  0.8208300020000010  0.0382400000000018   F   F   F
  0.0702000060000003  0.8335499499999983  0.0487300010000027   F   F   F
  0.3201999839999985  0.3335499969999987  0.0487300010000027   F   F   F
  0.5702000369999993  0.8335499499999983  0.0487300010000027   F   F   F
  0.8202000149999975  0.3335499969999987  0.0487300010000027   F   F   F
  0.2378299969999986  0.0677800019999992  0.0570299999999975   F   F   F
  0.4878300390000021  0.5677800090000034  0.0570299999999975   F   F   F
  0.7378300120000034  0.0677800019999992  0.0570299999999975   F   F   F
  0.9878299749999968  0.5677800090000034  0.0570299999999975   F   F   F
  0.2195499930000011  0.5805100059999972  0.0675199989999982   F   F   F
  0.4695499979999980  0.0805099990000002  0.0675199989999982   F   F   F
  0.7195499930000011  0.5805100059999972  0.0675199989999982   F   F   F
  0.9695499979999980  0.0805099990000002  0.0675199989999982   F   F   F
  0.1060202856734733  0.9827820044036955  0.1709220166445107   T   T   T
  0.3562944881054761  0.4836343268287635  0.1710936965990442   T   T   T
  0.6076863204072680  0.9841432988927750  0.1712739753558097   T   T   T
  0.8553784437847085  0.4824139323217835  0.1731735570556694   T   T   T
  0.0893198018750283  0.4946347980133794  0.1825352602275601   T   T   T
  0.3390331180307768  0.9948494527178866  0.1821572129591544   T   T   T
  0.5891542826148211  0.4925014427990533  0.1820204160935361   T   T   T
  0.8388553740759122  0.9954528771583000  0.1826320625940028   T   T   T
  0.0046199505157034  0.2301955577153691  0.1914398065232206   T   T   T
  0.2532900003229486  0.7298321016453428  0.1913005417270170   T   T   T
  0.5038056417626038  0.2286203618003810  0.1907733065175989   T   T   T
  0.7574607366013453  0.7300263373166942  0.1909072851440641   T   T   T
  0.2395965899784898  0.2417961504399955  0.2006743803262481   T   T   T
  0.4880842441779265  0.7427967441292722  0.1999689790166030   T   T   T
  0.7410163245162309  0.2452236964963461  0.2038887427277558   T   T   T
  0.9890010213863434  0.7402919250128264  0.2020851375841062   T   T   T
  0.1229639898719697  0.6410585933883866  0.3140858423801234   T   T   T
  0.3712452026272359  0.1389927389145527  0.3130012059369136   T   T   T
  0.6234556563690035  0.6464171401232406  0.3047587003509804   T   T   T
  0.8742425454874336  0.1389765409604706  0.3139465994709809   T   T   T
  0.1096997362606160  0.1606670212040129  0.3123960295912411   T   T   T
  0.3581329811804324  0.6594728230654567  0.3126586236620454   T   T   T
  0.6056279342838096  0.1574023531838478  0.3135522644619613   T   T   T
  0.8583994015334753  0.6617724777203833  0.3178991280278893   T   T   T
  0.0267100385983881  0.8887566738569888  0.3244009969774737   T   T   T
  0.2752868141117872  0.3882875159985915  0.3253223656281463   T   T   T
  0.5244317536575664  0.8862978773455481  0.3248821080180022   T   T   T
  0.7821353781346545  0.3826069809558774  0.3336055357676102   T   T   T
  0.0113227920536190  0.4068816614767812  0.3358247208260181   T   T   T
  0.2586725991819137  0.9063571363357283  0.3360779558396700   T   T   T
  0.5064366570788508  0.3991939864818690  0.3337686155756785   T   T   T
  0.7592865386624013  0.9075519769335187  0.3362708051023446   T   T   T
  0.6961978845223840  0.5465803606018937  0.4220804853361741   T   T   T
  0.0244000009999965  0.1725499900000003  0.0000000000000000   F   F   F
  0.2743999890000026  0.6725500209999993  0.0000000000000000   F   F   F
  0.5243999930000030  0.1725499900000003  0.0000000000000000   F   F   F
  0.7743999890000026  0.6725500209999993  0.0000000000000000   F   F   F
  0.2145499989999990  0.4315699679999980  0.0158100000000019   F   F   F
  0.4645500080000033  0.9315699610000010  0.0158100000000019   F   F   F
  0.7145500780000020  0.4315699679999980  0.0158100000000019   F   F   F
  0.9645500390000024  0.9315699610000010  0.0158100000000019   F   F   F
  0.2067299980000001  0.8909299700000020  0.0249000009999989   F   F   F
  0.4567300049999972  0.3909299780000026  0.0249000009999989   F   F   F
  0.7067299659999975  0.8909299700000020  0.0249000009999989   F   F   F
  0.9567300360000033  0.3909299780000026  0.0249000009999989   F   F   F
  0.1974799959999984  0.2260999960000021  0.0441799990000007   F   F   F
  0.4474800229999971  0.7261000270000011  0.0441799990000007   F   F   F
  0.6974800269999974  0.2260999960000021  0.0441799990000007   F   F   F
  0.9474799919999981  0.7261000270000011  0.0441799990000007   F   F   F
  0.1105399989999967  0.6752399410000010  0.0615799970000026   F   F   F
  0.3605400160000016  0.1752399880000013  0.0615799970000026   F   F   F
  0.6105399750000018  0.6752399410000010  0.0615799970000026   F   F   F
  0.8605399850000026  0.1752399880000013  0.0615799970000026   F   F   F
  0.1012899990000022  0.0104099989999966  0.0808599969999975   F   F   F
  0.3512900010000024  0.5104099989999966  0.0808599969999975   F   F   F
  0.6012899750000003  0.0104099989999966  0.0808599969999975   F   F   F
  0.8512899380000007  0.5104099989999966  0.0808599969999975   F   F   F
  0.0934799970000029  0.4697599980000007  0.0899500009999983   F   F   F
  0.3434799950000027  0.9697599510000003  0.0899500009999983   F   F   F
  0.5934800050000035  0.4697599980000007  0.0899500009999983   F   F   F
  0.8434799639999966  0.9697599510000003  0.0899500009999983   F   F   F
  0.0336199999999991  0.2287800049999973  0.1057599960000033   F   F   F
  0.2836199919999984  0.7287799770000021  0.1057599960000033   F   F   F
  0.5336199679999964  0.2287800049999973  0.1057599960000033   F   F   F
  0.7836200229999974  0.7287799770000021  0.1057599960000033   F   F   F
  0.0456870750430056  0.8327216836691136  0.1336683651687949   T   T   T
  0.2962469215863806  0.3338678393867269  0.1334752368888914   T   T   T
  0.5464137782232754  0.8336825567172994  0.1334620589734143   T   T   T
  0.7958752908095477  0.3326296939098725  0.1340769473328152   T   T   T
  0.2313425186508340  0.0933233685125359  0.1461489723726572   T   T   T
  0.4816316877293687  0.5934517869581981  0.1466830992624466   T   T   T
  0.7317580781319535  0.0936994197080239  0.1469355237119245   T   T   T
  0.9816660831964086  0.5933356952946482  0.1469433209297222   T   T   T
  0.2256003833040339  0.5522250050455924  0.1605037832783935   T   T   T
  0.4762217465242315  0.0508002510855050  0.1606385095752714   T   T   T
  0.7251873590361697  0.5520481485080921  0.1606680314788562   T   T   T
  0.9752775281826587  0.0522406899051120  0.1607447608454038   T   T   T
  0.2150295769145174  0.8901414026478349  0.1810362659537006   T   T   T
  0.4644824230626980  0.3893558990634745  0.1806810707032724   T   T   T
  0.7151243874182285  0.8891654459678122  0.1810332037275160   T   T   T
  0.9652793899036851  0.3903709341137471  0.1819363768153224   T   T   T
  0.1298264927615236  0.3348599756338686  0.1924235952865203   T   T   T
  0.3790776333184667  0.8349355498589546  0.1933760444385655   T   T   T
  0.6281254898917226  0.3347341392690026  0.1942164261445640   T   T   T
  0.8798767987887999  0.8361479801895939  0.1936508788521678   T   T   T
  0.1177630278149593  0.6710091917469043  0.2146729720713552   T   T   T
  0.3670251500774242  0.1692382834017252  0.2126316594608824   T   T   T
  0.6186149701819232  0.6706699125259092  0.2138703254748009   T   T   T
  0.8678797891098924  0.1703002560237223  0.2161108674585179   T   T   T
  0.1155864512823257  0.1301105065924730  0.2238646875368886   T   T   T
  0.3640041284067692  0.6309359413761513  0.2239948306644663   T   T   T
  0.6149737369189126  0.1310226916457182  0.2249857520234428   T   T   T
  0.8640735450676331  0.6317235455904324  0.2251040065997501   T   T   T
  0.0472564677981211  0.8932690924908258  0.2398573073144519   T   T   T
  0.2969356558921135  0.3956034798782824  0.2405647693970323   T   T   T
  0.5472886831210886  0.8932741204509753  0.2401055514668613   T   T   T
  0.7961457980302384  0.3937316454240332  0.2411924427071312   T   T   T
  0.0695259326577897  0.4921140832754176  0.2688297548388690   T   T   T
  0.3147622253332401  0.9921366835230145  0.2683018279910172   T   T   T
  0.5616543375370924  0.4933574184772809  0.2684993447374566   T   T   T
  0.8115653322815533  0.9934691329115495  0.2684875305564773   T   T   T
  0.2511206843974207  0.7501469550700008  0.2826030174538658   T   T   T
  0.4965691673000379  0.2488979948148256  0.2808941207471705   T   T   T
  0.7504251615303943  0.7491807365217724  0.2827842828558005   T   T   T
  0.0051848877429705  0.2508442291504380  0.2814667437238185   T   T   T
  0.2457401183960854  0.2137682594328396  0.2909129080316859   T   T   T
  0.4942873231468141  0.7116811449594849  0.2904067154101142   T   T   T
  0.7437499918105956  0.2152387676478895  0.2962630309335523   T   T   T
  0.9946031214595550  0.7115324216286396  0.2929011438957190   T   T   T
  0.2390373445885814  0.5541304243042902  0.3293226121563606   T   T   T
  0.4858814827430322  0.0513139264119076  0.3268519182532614   T   T   T
  0.7323155359178628  0.5518720569739557  0.3265148723768405   T   T   T
  0.9894875002182744  0.0551852638331667  0.3282819490418234   T   T   T
  0.1469935726407030  0.0033651726115025  0.3307525818242709   T   T   T
  0.3981691961305032  0.5044395094578249  0.3339644700869897   T   T   T
  0.6432986199736206  0.9996177493934084  0.3337641269534046   T   T   T
  0.8968104035747544  0.5006511591986680  0.3284116233349224   T   T   T
  0.1376882309278002  0.3208146031280137  0.3514344216290866   T   T   T
  0.3858856732362028  0.8190902922809471  0.3510612759782532   T   T   T
  0.6165148961204139  0.3093690960121478  0.3543343153890817   T   T   T
  0.8899260241647298  0.8329145953239276  0.3463054947037065   T   T   T
  0.1318563120708873  0.7994155951768676  0.3562740533014619   T   T   T
  0.3803090078885560  0.2983735693324334  0.3552557570211121   T   T   T
  0.6288753251739578  0.7928732984520224  0.3542315833609777   T   T   T
  0.8909467248750502  0.2940541208168028  0.3554944319713087   T   T   T
  0.0655427516198657  0.5441078459963364  0.3747867351710710   T   T   T
  0.3158644789634479  0.0421367598376818  0.3745931461942007   T   T   T
  0.5770144629794771  0.5395486255400641  0.3775061935237360   T   T   T
  0.8158882137507604  0.0419987646199118  0.3748802422970456   T   T   T
  0.8043171214985563  0.6696939569489473  0.4063039192777609   T   T   T
  0.7559646656429351  0.4134269169417095  0.4171971811514297   T   T   T
  0.6172516725564776  0.5205617238414462  0.5275253099078228   T   T   T
  0.6725499109536486  0.8258421764016219  0.5349517378679991   T   T   T
  0.8352790520509359  0.7206954073294085  0.4323181355866978   T   T   T
  0.5820730767956945  0.8643541855107770  0.4942158912493611   T   T   T
  0.6730054949419966  0.8086430160800901  0.4612937734010600   T   T   T
  0.5416166113060754  0.6851354419299653  0.5428236144720202   T   T   T
  0.5385814157115263  0.6687704782318704  0.4700399297751758   T   T   T
  0.7041041032504367  0.6228702841780915  0.5395795817359783   T   T   T
  0.6304108078314385  0.8025221061964984  0.4986926721891578   T   T   T
  0.6510066886173078  0.5969302303189323  0.5093848098575862   T   T   T
  0.5845478182808392  0.6861990001727563  0.5054866522029471   T   T   T
 
  0.00000000E+00  0.00000000E+00  0.00000000E+00
  0.00000000E+00  0.00000000E+00  0.00000000E+00
  0.00000000E+00  0.00000000E+00  0.00000000E+00
  0.00000000E+00  0.00000000E+00  0.00000000E+00
  0.00000000E+00  0.00000000E+00  0.00000000E+00
  0.00000000E+00  0.00000000E+00  0.00000000E+00
  0.00000000E+00  0.00000000E+00  0.00000000E+00
  0.00000000E+00  0.00000000E+00  0.00000000E+00
  0.00000000E+00  0.00000000E+00  0.00000000E+00
  0.00000000E+00  0.00000000E+00  0.00000000E+00
  0.00000000E+00  0.00000000E+00  0.00000000E+00
  0.00000000E+00  0.00000000E+00  0.00000000E+00
  0.00000000E+00  0.00000000E+00  0.00000000E+00
  0.00000000E+00  0.00000000E+00  0.00000000E+00
  0.00000000E+00  0.00000000E+00  0.00000000E+00
  0.00000000E+00  0.00000000E+00  0.00000000E+00
  0.00000000E+00  0.00000000E+00  0.00000000E+00
  0.00000000E+00  0.00000000E+00  0.00000000E+00
  0.00000000E+00  0.00000000E+00  0.00000000E+00
  0.00000000E+00  0.00000000E+00  0.00000000E+00
  0.00000000E+00  0.00000000E+00  0.00000000E+00
  0.00000000E+00  0.00000000E+00  0.00000000E+00
  0.00000000E+00  0.00000000E+00  0.00000000E+00
  0.00000000E+00  0.00000000E+00  0.00000000E+00
  0.00000000E+00  0.00000000E+00  0.00000000E+00
  0.00000000E+00  0.00000000E+00  0.00000000E+00
  0.00000000E+00  0.00000000E+00  0.00000000E+00
  0.00000000E+00  0.00000000E+00  0.00000000E+00
  0.00000000E+00  0.00000000E+00  0.00000000E+00
  0.00000000E+00  0.00000000E+00  0.00000000E+00
  0.00000000E+00  0.00000000E+00  0.00000000E+00
  0.00000000E+00  0.00000000E+00  0.00000000E+00
  0.00000000E+00  0.00000000E+00  0.00000000E+00
  0.00000000E+00  0.00000000E+00  0.00000000E+00
  0.00000000E+00  0.00000000E+00  0.00000000E+00
  0.00000000E+00  0.00000000E+00  0.00000000E+00
  0.00000000E+00  0.00000000E+00  0.00000000E+00
  0.00000000E+00  0.00000000E+00  0.00000000E+00
  0.00000000E+00  0.00000000E+00  0.00000000E+00
  0.00000000E+00  0.00000000E+00  0.00000000E+00
  0.00000000E+00  0.00000000E+00  0.00000000E+00
  0.00000000E+00  0.00000000E+00  0.00000000E+00
  0.00000000E+00  0.00000000E+00  0.00000000E+00
  0.00000000E+00  0.00000000E+00  0.00000000E+00
  0.00000000E+00  0.00000000E+00  0.00000000E+00
  0.00000000E+00  0.00000000E+00  0.00000000E+00
  0.00000000E+00  0.00000000E+00  0.00000000E+00
  0.00000000E+00  0.00000000E+00  0.00000000E+00
  0.00000000E+00  0.00000000E+00  0.00000000E+00
  0.00000000E+00  0.00000000E+00  0.00000000E+00
  0.00000000E+00  0.00000000E+00  0.00000000E+00
  0.00000000E+00  0.00000000E+00  0.00000000E+00
  0.00000000E+00  0.00000000E+00  0.00000000E+00
  0.00000000E+00  0.00000000E+00  0.00000000E+00
  0.00000000E+00  0.00000000E+00  0.00000000E+00
  0.00000000E+00  0.00000000E+00  0.00000000E+00
  0.00000000E+00  0.00000000E+00  0.00000000E+00
  0.00000000E+00  0.00000000E+00  0.00000000E+00
  0.00000000E+00  0.00000000E+00  0.00000000E+00
  0.00000000E+00  0.00000000E+00  0.00000000E+00
  0.00000000E+00  0.00000000E+00  0.00000000E+00
  0.00000000E+00  0.00000000E+00  0.00000000E+00
  0.00000000E+00  0.00000000E+00  0.00000000E+00
  0.00000000E+00  0.00000000E+00  0.00000000E+00
  0.00000000E+00  0.00000000E+00  0.00000000E+00
  0.00000000E+00  0.00000000E+00  0.00000000E+00
  0.00000000E+00  0.00000000E+00  0.00000000E+00
  0.00000000E+00  0.00000000E+00  0.00000000E+00
  0.00000000E+00  0.00000000E+00  0.00000000E+00
  0.00000000E+00  0.00000000E+00  0.00000000E+00
  0.00000000E+00  0.00000000E+00  0.00000000E+00
  0.00000000E+00  0.00000000E+00  0.00000000E+00
  0.00000000E+00  0.00000000E+00  0.00000000E+00
  0.00000000E+00  0.00000000E+00  0.00000000E+00
  0.00000000E+00  0.00000000E+00  0.00000000E+00
  0.00000000E+00  0.00000000E+00  0.00000000E+00
  0.00000000E+00  0.00000000E+00  0.00000000E+00
  0.00000000E+00  0.00000000E+00  0.00000000E+00
  0.00000000E+00  0.00000000E+00  0.00000000E+00
  0.00000000E+00  0.00000000E+00  0.00000000E+00
  0.00000000E+00  0.00000000E+00  0.00000000E+00
  0.00000000E+00  0.00000000E+00  0.00000000E+00
  0.00000000E+00  0.00000000E+00  0.00000000E+00
  0.00000000E+00  0.00000000E+00  0.00000000E+00
  0.00000000E+00  0.00000000E+00  0.00000000E+00
  0.00000000E+00  0.00000000E+00  0.00000000E+00
  0.00000000E+00  0.00000000E+00  0.00000000E+00
  0.00000000E+00  0.00000000E+00  0.00000000E+00
  0.00000000E+00  0.00000000E+00  0.00000000E+00
  0.00000000E+00  0.00000000E+00  0.00000000E+00
  0.00000000E+00  0.00000000E+00  0.00000000E+00
  0.00000000E+00  0.00000000E+00  0.00000000E+00
  0.00000000E+00  0.00000000E+00  0.00000000E+00
  0.00000000E+00  0.00000000E+00  0.00000000E+00
  0.00000000E+00  0.00000000E+00  0.00000000E+00
  0.00000000E+00  0.00000000E+00  0.00000000E+00
  0.00000000E+00  0.00000000E+00  0.00000000E+00
  0.00000000E+00  0.00000000E+00  0.00000000E+00
  0.00000000E+00  0.00000000E+00  0.00000000E+00
  0.00000000E+00  0.00000000E+00  0.00000000E+00
  0.00000000E+00  0.00000000E+00  0.00000000E+00
  0.00000000E+00  0.00000000E+00  0.00000000E+00
  0.00000000E+00  0.00000000E+00  0.00000000E+00
  0.00000000E+00  0.00000000E+00  0.00000000E+00
  0.00000000E+00  0.00000000E+00  0.00000000E+00
  0.00000000E+00  0.00000000E+00  0.00000000E+00
  0.00000000E+00  0.00000000E+00  0.00000000E+00
  0.00000000E+00  0.00000000E+00  0.00000000E+00
  0.00000000E+00  0.00000000E+00  0.00000000E+00
  0.00000000E+00  0.00000000E+00  0.00000000E+00
  0.00000000E+00  0.00000000E+00  0.00000000E+00
  0.00000000E+00  0.00000000E+00  0.00000000E+00
  0.00000000E+00  0.00000000E+00  0.00000000E+00
  0.00000000E+00  0.00000000E+00  0.00000000E+00
  0.00000000E+00  0.00000000E+00  0.00000000E+00
  0.00000000E+00  0.00000000E+00  0.00000000E+00
  0.00000000E+00  0.00000000E+00  0.00000000E+00
  0.00000000E+00  0.00000000E+00  0.00000000E+00
  0.00000000E+00  0.00000000E+00  0.00000000E+00
  0.00000000E+00  0.00000000E+00  0.00000000E+00
  0.00000000E+00  0.00000000E+00  0.00000000E+00
  0.00000000E+00  0.00000000E+00  0.00000000E+00
  0.00000000E+00  0.00000000E+00  0.00000000E+00
  0.00000000E+00  0.00000000E+00  0.00000000E+00
  0.00000000E+00  0.00000000E+00  0.00000000E+00
  0.00000000E+00  0.00000000E+00  0.00000000E+00
  0.00000000E+00  0.00000000E+00  0.00000000E+00
  0.00000000E+00  0.00000000E+00  0.00000000E+00
  0.00000000E+00  0.00000000E+00  0.00000000E+00
  0.00000000E+00  0.00000000E+00  0.00000000E+00
  0.00000000E+00  0.00000000E+00  0.00000000E+00
  0.00000000E+00  0.00000000E+00  0.00000000E+00
  0.00000000E+00  0.00000000E+00  0.00000000E+00
  0.00000000E+00  0.00000000E+00  0.00000000E+00
  0.00000000E+00  0.00000000E+00  0.00000000E+00
  0.00000000E+00  0.00000000E+00  0.00000000E+00
  0.00000000E+00  0.00000000E+00  0.00000000E+00
  0.00000000E+00  0.00000000E+00  0.00000000E+00
  0.00000000E+00  0.00000000E+00  0.00000000E+00
  0.00000000E+00  0.00000000E+00  0.00000000E+00
  0.00000000E+00  0.00000000E+00  0.00000000E+00
  0.00000000E+00  0.00000000E+00  0.00000000E+00
  0.00000000E+00  0.00000000E+00  0.00000000E+00
  0.00000000E+00  0.00000000E+00  0.00000000E+00
  0.00000000E+00  0.00000000E+00  0.00000000E+00
  0.00000000E+00  0.00000000E+00  0.00000000E+00
  0.00000000E+00  0.00000000E+00  0.00000000E+00
  0.00000000E+00  0.00000000E+00  0.00000000E+00
  0.00000000E+00  0.00000000E+00  0.00000000E+00
  0.00000000E+00  0.00000000E+00  0.00000000E+00
  0.00000000E+00  0.00000000E+00  0.00000000E+00
  0.00000000E+00  0.00000000E+00  0.00000000E+00
  0.00000000E+00  0.00000000E+00  0.00000000E+00
  0.00000000E+00  0.00000000E+00  0.00000000E+00
  0.00000000E+00  0.00000000E+00  0.00000000E+00
  0.00000000E+00  0.00000000E+00  0.00000000E+00
  0.00000000E+00  0.00000000E+00  0.00000000E+00
  0.00000000E+00  0.00000000E+00  0.00000000E+00
