POSCAR-1                                
   1.00000000000000     
    15.1106004714999997    0.0000000000000000    0.0000000000000000
    -1.0800946320000000   12.1474763860999992    0.0000000000000000
     0.0000000000000000    0.0000000000000000   23.9724006653000004
   Zr   O    H    C 
    49    98    12     6
Selective dynamics
Direct
  0.0884800019999972  0.3208299900000000  0.0382400000000018   F   F   F
  0.3384799809999990  0.8208300020000010  0.0382400000000018   F   F   F
  0.5884799860000030  0.3208299900000000  0.0382400000000018   F   F   F
  0.8384800119999980  0.8208300020000010  0.0382400000000018   F   F   F
  0.0702000060000003  0.8335499499999983  0.0487300010000027   F   F   F
  0.3201999839999985  0.3335499969999987  0.0487300010000027   F   F   F
  0.5702000369999993  0.8335499499999983  0.0487300010000027   F   F   F
  0.8202000149999975  0.3335499969999987  0.0487300010000027   F   F   F
  0.2378299969999986  0.0677800019999992  0.0570299999999975   F   F   F
  0.4878300390000021  0.5677800090000034  0.0570299999999975   F   F   F
  0.7378300120000034  0.0677800019999992  0.0570299999999975   F   F   F
  0.9878299749999968  0.5677800090000034  0.0570299999999975   F   F   F
  0.2195499930000011  0.5805100059999972  0.0675199989999982   F   F   F
  0.4695499979999980  0.0805099990000002  0.0675199989999982   F   F   F
  0.7195499930000011  0.5805100059999972  0.0675199989999982   F   F   F
  0.9695499979999980  0.0805099990000002  0.0675199989999982   F   F   F
  0.1054834862784304  0.9823647754456459  0.1709131946306641   T   T   T
  0.3562913310636020  0.4836232558986211  0.1710967514854360   T   T   T
  0.6077551964767309  0.9843653487865325  0.1714234852169128   T   T   T
  0.8559163665202902  0.4835546655536120  0.1728673564284193   T   T   T
  0.0893228608780845  0.4948330036231994  0.1824643264288639   T   T   T
  0.3387384662402440  0.9948839113620593  0.1820829854255024   T   T   T
  0.5887821016048278  0.4925120053418581  0.1822028739221153   T   T   T
  0.8383753095743742  0.9951598570539488  0.1826476340374725   T   T   T
  0.0045512567422037  0.2304103315672705  0.1913150090891023   T   T   T
  0.2527882341490937  0.7298285364201575  0.1913497883699620   T   T   T
  0.5038980959819099  0.2285192600759274  0.1908558867598984   T   T   T
  0.7577367226401961  0.7292643559600336  0.1912855167309075   T   T   T
  0.2393898517877844  0.2417614666479793  0.2005188785555134   T   T   T
  0.4876615048302213  0.7429678443800967  0.1995827775153600   T   T   T
  0.7405235245247539  0.2450232111319437  0.2035395016297059   T   T   T
  0.9879041289725876  0.7400082461053614  0.2027989620541106   T   T   T
  0.1227357985191162  0.6422386465358372  0.3141201796592981   T   T   T
  0.3703584165317082  0.1396410818704652  0.3124825595035219   T   T   T
  0.6214387236352792  0.6472056604158070  0.3043323988438544   T   T   T
  0.8736196598745281  0.1380788130428741  0.3134633078522953   T   T   T
  0.1092623609129006  0.1607783802450342  0.3121671083704811   T   T   T
  0.3577025651240007  0.6594590334526771  0.3127924041038384   T   T   T
  0.6041183242562695  0.1581085110198970  0.3147213151496260   T   T   T
  0.8575571718700488  0.6637676652479954  0.3220962650892716   T   T   T
  0.0261076872658705  0.8890906136588086  0.3244825968533505   T   T   T
  0.2748193913181964  0.3888303731640477  0.3254040550013499   T   T   T
  0.5235445638281675  0.8870332374716625  0.3245591377758998   T   T   T
  0.7883732842831748  0.3834016725494109  0.3311728878653071   T   T   T
  0.0137326846238324  0.4070760269543641  0.3357444869561945   T   T   T
  0.2579644357024620  0.9068229368819800  0.3360083843707713   T   T   T
  0.5054725541672269  0.3988042051656606  0.3347937010319058   T   T   T
  0.7585417713170699  0.9067395402262122  0.3364688970830372   T   T   T
  0.7058073249436347  0.5510046340787369  0.4144554631795003   T   T   T
  0.0244000009999965  0.1725499900000003  0.0000000000000000   F   F   F
  0.2743999890000026  0.6725500209999993  0.0000000000000000   F   F   F
  0.5243999930000030  0.1725499900000003  0.0000000000000000   F   F   F
  0.7743999890000026  0.6725500209999993  0.0000000000000000   F   F   F
  0.2145499989999990  0.4315699679999980  0.0158100000000019   F   F   F
  0.4645500080000033  0.9315699610000010  0.0158100000000019   F   F   F
  0.7145500780000020  0.4315699679999980  0.0158100000000019   F   F   F
  0.9645500390000024  0.9315699610000010  0.0158100000000019   F   F   F
  0.2067299980000001  0.8909299700000020  0.0249000009999989   F   F   F
  0.4567300049999972  0.3909299780000026  0.0249000009999989   F   F   F
  0.7067299659999975  0.8909299700000020  0.0249000009999989   F   F   F
  0.9567300360000033  0.3909299780000026  0.0249000009999989   F   F   F
  0.1974799959999984  0.2260999960000021  0.0441799990000007   F   F   F
  0.4474800229999971  0.7261000270000011  0.0441799990000007   F   F   F
  0.6974800269999974  0.2260999960000021  0.0441799990000007   F   F   F
  0.9474799919999981  0.7261000270000011  0.0441799990000007   F   F   F
  0.1105399989999967  0.6752399410000010  0.0615799970000026   F   F   F
  0.3605400160000016  0.1752399880000013  0.0615799970000026   F   F   F
  0.6105399750000018  0.6752399410000010  0.0615799970000026   F   F   F
  0.8605399850000026  0.1752399880000013  0.0615799970000026   F   F   F
  0.1012899990000022  0.0104099989999966  0.0808599969999975   F   F   F
  0.3512900010000024  0.5104099989999966  0.0808599969999975   F   F   F
  0.6012899750000003  0.0104099989999966  0.0808599969999975   F   F   F
  0.8512899380000007  0.5104099989999966  0.0808599969999975   F   F   F
  0.0934799970000029  0.4697599980000007  0.0899500009999983   F   F   F
  0.3434799950000027  0.9697599510000003  0.0899500009999983   F   F   F
  0.5934800050000035  0.4697599980000007  0.0899500009999983   F   F   F
  0.8434799639999966  0.9697599510000003  0.0899500009999983   F   F   F
  0.0336199999999991  0.2287800049999973  0.1057599960000033   F   F   F
  0.2836199919999984  0.7287799770000021  0.1057599960000033   F   F   F
  0.5336199679999964  0.2287800049999973  0.1057599960000033   F   F   F
  0.7836200229999974  0.7287799770000021  0.1057599960000033   F   F   F
  0.0448372664552821  0.8326900011526703  0.1336656217190537   T   T   T
  0.2961663734640965  0.3339556871875402  0.1334170587969226   T   T   T
  0.5460647614563570  0.8340171232108986  0.1333480310362205   T   T   T
  0.7955162119157819  0.3326814527480479  0.1338449994253494   T   T   T
  0.2313733154588959  0.0932285478253689  0.1460788019724646   T   T   T
  0.4813805255006613  0.5935614314816107  0.1466432998587734   T   T   T
  0.7316901679377352  0.0937349873361057  0.1469248361731204   T   T   T
  0.9818835184855885  0.5934682297235412  0.1468319874565793   T   T   T
  0.2254844059327539  0.5524421727309488  0.1604428085536398   T   T   T
  0.4761065090350485  0.0507553305239128  0.1606604740181581   T   T   T
  0.7248557743883524  0.5517450129054495  0.1606971909986257   T   T   T
  0.9748134349873041  0.0526180698071386  0.1607346027042169   T   T   T
  0.2146480297737696  0.8899670665716997  0.1808113540419853   T   T   T
  0.4644162559043394  0.3892439215887435  0.1801462351387073   T   T   T
  0.7148604660197293  0.8886886697882517  0.1808874070609505   T   T   T
  0.9655780875772138  0.3905382821623888  0.1817242328532771   T   T   T
  0.1301778753884761  0.3350009484818131  0.1919804867955932   T   T   T
  0.3785815880442769  0.8349326601040730  0.1934495222090433   T   T   T
  0.6283056407749399  0.3351755840955235  0.1944320268317341   T   T   T
  0.8792705995154222  0.8366059957815395  0.1941305695009561   T   T   T
  0.1171687645322521  0.6715234360717801  0.2147932337085834   T   T   T
  0.3669017184174166  0.1691987645560289  0.2127681922451430   T   T   T
  0.6179299378595005  0.6705519029476221  0.2135773720336189   T   T   T
  0.8673857306163413  0.1700282276546687  0.2165343844722258   T   T   T
  0.1154109939662220  0.1299059607313851  0.2236837910920713   T   T   T
  0.3635948350167411  0.6305791551353437  0.2242110168773408   T   T   T
  0.6149288082596058  0.1311156600054346  0.2251897753446386   T   T   T
  0.8641522313115004  0.6320003852803708  0.2246782068580302   T   T   T
  0.0467857092212824  0.8935151789693592  0.2399394550572609   T   T   T
  0.2976770296679945  0.3956768605763585  0.2407404835891427   T   T   T
  0.5474680603364348  0.8930349352948213  0.2399848265815763   T   T   T
  0.7980515578363878  0.3929905377871421  0.2402717289111891   T   T   T
  0.0711033861674863  0.4924909798438435  0.2687611150186129   T   T   T
  0.3134021513487610  0.9922944268388605  0.2680898378205114   T   T   T
  0.5598707678711179  0.4930994201115197  0.2687298211144125   T   T   T
  0.8093305415515530  0.9933234803874313  0.2683246630890821   T   T   T
  0.2507123856790159  0.7502821930777017  0.2826506927034345   T   T   T
  0.4968419844207475  0.2507253615326590  0.2803318583213681   T   T   T
  0.7488706985752742  0.7470498120247484  0.2836088547135844   T   T   T
  0.0062460889375586  0.2519073690889684  0.2806460719824813   T   T   T
  0.2449645605327291  0.2143057987421884  0.2907311979363385   T   T   T
  0.4937901073519839  0.7123790205544225  0.2901052000794735   T   T   T
  0.7421047153783533  0.2185836975598079  0.2968274152359029   T   T   T
  0.9942335876575896  0.7121531094866356  0.2940498526588300   T   T   T
  0.2388015644412604  0.5545834579661602  0.3290071495053439   T   T   T
  0.4841959564928899  0.0511475485691264  0.3252179942909947   T   T   T
  0.7297905719206526  0.5443153874423672  0.3239491214589449   T   T   T
  0.9886631179672776  0.0561871897577220  0.3285186773361204   T   T   T
  0.1462370941886775  0.0037769601836217  0.3306397559111574   T   T   T
  0.3973590399384079  0.5052887369129309  0.3366005743293243   T   T   T
  0.6417518933694168  0.0000740681151115  0.3349618914220756   T   T   T
  0.8994923037150357  0.5012232008414372  0.3274380444382032   T   T   T
  0.1378033722093619  0.3202832078449234  0.3520861138955027   T   T   T
  0.3853877006617878  0.8188935280471910  0.3513517851799364   T   T   T
  0.6055383500958271  0.3020282647761974  0.3608249332850519   T   T   T
  0.8894516343350034  0.8381035627761975  0.3443473144131488   T   T   T
  0.1320281106665675  0.8001835562241553  0.3564394598127123   T   T   T
  0.3793882177493657  0.2982899076788286  0.3551436544498117   T   T   T
  0.6272144629747700  0.7934242627489283  0.3552256375809293   T   T   T
  0.8938829954748897  0.2931464059990319  0.3550801873163252   T   T   T
  0.0673680368563083  0.5439485796043542  0.3750154155023466   T   T   T
  0.3154808684597086  0.0428911046292839  0.3743763352228058   T   T   T
  0.5788481198956390  0.5443489929242915  0.3775930446797275   T   T   T
  0.8135410032007400  0.0436697922341338  0.3742932200197728   T   T   T
  0.8041909045027253  0.6669646162261529  0.4031174567402687   T   T   T
  0.7593485583360930  0.4135827614258289  0.4148184766010772   T   T   T
  0.7682925915421563  0.0111498842883648  0.4730632375906083   T   T   T
  0.8271722072820751  0.8224515066062139  0.4619849236860389   T   T   T
  0.9535471238358113  0.9948057411727689  0.5242539213133668   T   T   T
  0.8452719160452062  0.8192631814665745  0.5342997143613104   T   T   T
  0.9130115663004545  0.1152889139409723  0.4952233278317024   T   T   T
  0.9279901928829162  0.0016973021556410  0.4515395890435911   T   T   T
  0.6628673185304592  0.8196206940431168  0.4760648414728479   T   T   T
  0.7891989500282932  0.0047967290941244  0.5456285242935834   T   T   T
  0.6790608092635608  0.8387043884748095  0.5483403350033811   T   T   T
  0.7540068884235964  0.6485761386000704  0.5451633147551149   T   T   T
  0.5694583072072916  0.6328083164289779  0.4881689722299640   T   T   T
  0.6243502723068843  0.5221220614969937  0.5250512101454419   T   T   T
  0.9072040676211728  0.0249031107364175  0.4935516144397738   T   T   T
  0.8022870733662941  0.8515991105535790  0.5020868163753320   T   T   T
  0.8116771288408913  0.9774981767386706  0.5044899871549688   T   T   T
  0.7066521719777228  0.8005716634312421  0.5109305887337214   T   T   T
  0.6984680770512028  0.6793800477220415  0.5221678099420473   T   T   T
  0.6283196912165465  0.6068045077920061  0.5093061420662579   T   T   T
 
  0.00000000E+00  0.00000000E+00  0.00000000E+00
  0.00000000E+00  0.00000000E+00  0.00000000E+00
  0.00000000E+00  0.00000000E+00  0.00000000E+00
  0.00000000E+00  0.00000000E+00  0.00000000E+00
  0.00000000E+00  0.00000000E+00  0.00000000E+00
  0.00000000E+00  0.00000000E+00  0.00000000E+00
  0.00000000E+00  0.00000000E+00  0.00000000E+00
  0.00000000E+00  0.00000000E+00  0.00000000E+00
  0.00000000E+00  0.00000000E+00  0.00000000E+00
  0.00000000E+00  0.00000000E+00  0.00000000E+00
  0.00000000E+00  0.00000000E+00  0.00000000E+00
  0.00000000E+00  0.00000000E+00  0.00000000E+00
  0.00000000E+00  0.00000000E+00  0.00000000E+00
  0.00000000E+00  0.00000000E+00  0.00000000E+00
  0.00000000E+00  0.00000000E+00  0.00000000E+00
  0.00000000E+00  0.00000000E+00  0.00000000E+00
  0.00000000E+00  0.00000000E+00  0.00000000E+00
  0.00000000E+00  0.00000000E+00  0.00000000E+00
  0.00000000E+00  0.00000000E+00  0.00000000E+00
  0.00000000E+00  0.00000000E+00  0.00000000E+00
  0.00000000E+00  0.00000000E+00  0.00000000E+00
  0.00000000E+00  0.00000000E+00  0.00000000E+00
  0.00000000E+00  0.00000000E+00  0.00000000E+00
  0.00000000E+00  0.00000000E+00  0.00000000E+00
  0.00000000E+00  0.00000000E+00  0.00000000E+00
  0.00000000E+00  0.00000000E+00  0.00000000E+00
  0.00000000E+00  0.00000000E+00  0.00000000E+00
  0.00000000E+00  0.00000000E+00  0.00000000E+00
  0.00000000E+00  0.00000000E+00  0.00000000E+00
  0.00000000E+00  0.00000000E+00  0.00000000E+00
  0.00000000E+00  0.00000000E+00  0.00000000E+00
  0.00000000E+00  0.00000000E+00  0.00000000E+00
  0.00000000E+00  0.00000000E+00  0.00000000E+00
  0.00000000E+00  0.00000000E+00  0.00000000E+00
  0.00000000E+00  0.00000000E+00  0.00000000E+00
  0.00000000E+00  0.00000000E+00  0.00000000E+00
  0.00000000E+00  0.00000000E+00  0.00000000E+00
  0.00000000E+00  0.00000000E+00  0.00000000E+00
  0.00000000E+00  0.00000000E+00  0.00000000E+00
  0.00000000E+00  0.00000000E+00  0.00000000E+00
  0.00000000E+00  0.00000000E+00  0.00000000E+00
  0.00000000E+00  0.00000000E+00  0.00000000E+00
  0.00000000E+00  0.00000000E+00  0.00000000E+00
  0.00000000E+00  0.00000000E+00  0.00000000E+00
  0.00000000E+00  0.00000000E+00  0.00000000E+00
  0.00000000E+00  0.00000000E+00  0.00000000E+00
  0.00000000E+00  0.00000000E+00  0.00000000E+00
  0.00000000E+00  0.00000000E+00  0.00000000E+00
  0.00000000E+00  0.00000000E+00  0.00000000E+00
  0.00000000E+00  0.00000000E+00  0.00000000E+00
  0.00000000E+00  0.00000000E+00  0.00000000E+00
  0.00000000E+00  0.00000000E+00  0.00000000E+00
  0.00000000E+00  0.00000000E+00  0.00000000E+00
  0.00000000E+00  0.00000000E+00  0.00000000E+00
  0.00000000E+00  0.00000000E+00  0.00000000E+00
  0.00000000E+00  0.00000000E+00  0.00000000E+00
  0.00000000E+00  0.00000000E+00  0.00000000E+00
  0.00000000E+00  0.00000000E+00  0.00000000E+00
  0.00000000E+00  0.00000000E+00  0.00000000E+00
  0.00000000E+00  0.00000000E+00  0.00000000E+00
  0.00000000E+00  0.00000000E+00  0.00000000E+00
  0.00000000E+00  0.00000000E+00  0.00000000E+00
  0.00000000E+00  0.00000000E+00  0.00000000E+00
  0.00000000E+00  0.00000000E+00  0.00000000E+00
  0.00000000E+00  0.00000000E+00  0.00000000E+00
  0.00000000E+00  0.00000000E+00  0.00000000E+00
  0.00000000E+00  0.00000000E+00  0.00000000E+00
  0.00000000E+00  0.00000000E+00  0.00000000E+00
  0.00000000E+00  0.00000000E+00  0.00000000E+00
  0.00000000E+00  0.00000000E+00  0.00000000E+00
  0.00000000E+00  0.00000000E+00  0.00000000E+00
  0.00000000E+00  0.00000000E+00  0.00000000E+00
  0.00000000E+00  0.00000000E+00  0.00000000E+00
  0.00000000E+00  0.00000000E+00  0.00000000E+00
  0.00000000E+00  0.00000000E+00  0.00000000E+00
  0.00000000E+00  0.00000000E+00  0.00000000E+00
  0.00000000E+00  0.00000000E+00  0.00000000E+00
  0.00000000E+00  0.00000000E+00  0.00000000E+00
  0.00000000E+00  0.00000000E+00  0.00000000E+00
  0.00000000E+00  0.00000000E+00  0.00000000E+00
  0.00000000E+00  0.00000000E+00  0.00000000E+00
  0.00000000E+00  0.00000000E+00  0.00000000E+00
  0.00000000E+00  0.00000000E+00  0.00000000E+00
  0.00000000E+00  0.00000000E+00  0.00000000E+00
  0.00000000E+00  0.00000000E+00  0.00000000E+00
  0.00000000E+00  0.00000000E+00  0.00000000E+00
  0.00000000E+00  0.00000000E+00  0.00000000E+00
  0.00000000E+00  0.00000000E+00  0.00000000E+00
  0.00000000E+00  0.00000000E+00  0.00000000E+00
  0.00000000E+00  0.00000000E+00  0.00000000E+00
  0.00000000E+00  0.00000000E+00  0.00000000E+00
  0.00000000E+00  0.00000000E+00  0.00000000E+00
  0.00000000E+00  0.00000000E+00  0.00000000E+00
  0.00000000E+00  0.00000000E+00  0.00000000E+00
  0.00000000E+00  0.00000000E+00  0.00000000E+00
  0.00000000E+00  0.00000000E+00  0.00000000E+00
  0.00000000E+00  0.00000000E+00  0.00000000E+00
  0.00000000E+00  0.00000000E+00  0.00000000E+00
  0.00000000E+00  0.00000000E+00  0.00000000E+00
  0.00000000E+00  0.00000000E+00  0.00000000E+00
  0.00000000E+00  0.00000000E+00  0.00000000E+00
  0.00000000E+00  0.00000000E+00  0.00000000E+00
  0.00000000E+00  0.00000000E+00  0.00000000E+00
  0.00000000E+00  0.00000000E+00  0.00000000E+00
  0.00000000E+00  0.00000000E+00  0.00000000E+00
  0.00000000E+00  0.00000000E+00  0.00000000E+00
  0.00000000E+00  0.00000000E+00  0.00000000E+00
  0.00000000E+00  0.00000000E+00  0.00000000E+00
  0.00000000E+00  0.00000000E+00  0.00000000E+00
  0.00000000E+00  0.00000000E+00  0.00000000E+00
  0.00000000E+00  0.00000000E+00  0.00000000E+00
  0.00000000E+00  0.00000000E+00  0.00000000E+00
  0.00000000E+00  0.00000000E+00  0.00000000E+00
  0.00000000E+00  0.00000000E+00  0.00000000E+00
  0.00000000E+00  0.00000000E+00  0.00000000E+00
  0.00000000E+00  0.00000000E+00  0.00000000E+00
  0.00000000E+00  0.00000000E+00  0.00000000E+00
  0.00000000E+00  0.00000000E+00  0.00000000E+00
  0.00000000E+00  0.00000000E+00  0.00000000E+00
  0.00000000E+00  0.00000000E+00  0.00000000E+00
  0.00000000E+00  0.00000000E+00  0.00000000E+00
  0.00000000E+00  0.00000000E+00  0.00000000E+00
  0.00000000E+00  0.00000000E+00  0.00000000E+00
  0.00000000E+00  0.00000000E+00  0.00000000E+00
  0.00000000E+00  0.00000000E+00  0.00000000E+00
  0.00000000E+00  0.00000000E+00  0.00000000E+00
  0.00000000E+00  0.00000000E+00  0.00000000E+00
  0.00000000E+00  0.00000000E+00  0.00000000E+00
  0.00000000E+00  0.00000000E+00  0.00000000E+00
  0.00000000E+00  0.00000000E+00  0.00000000E+00
  0.00000000E+00  0.00000000E+00  0.00000000E+00
  0.00000000E+00  0.00000000E+00  0.00000000E+00
  0.00000000E+00  0.00000000E+00  0.00000000E+00
  0.00000000E+00  0.00000000E+00  0.00000000E+00
  0.00000000E+00  0.00000000E+00  0.00000000E+00
  0.00000000E+00  0.00000000E+00  0.00000000E+00
  0.00000000E+00  0.00000000E+00  0.00000000E+00
  0.00000000E+00  0.00000000E+00  0.00000000E+00
  0.00000000E+00  0.00000000E+00  0.00000000E+00
  0.00000000E+00  0.00000000E+00  0.00000000E+00
  0.00000000E+00  0.00000000E+00  0.00000000E+00
  0.00000000E+00  0.00000000E+00  0.00000000E+00
  0.00000000E+00  0.00000000E+00  0.00000000E+00
  0.00000000E+00  0.00000000E+00  0.00000000E+00
  0.00000000E+00  0.00000000E+00  0.00000000E+00
  0.00000000E+00  0.00000000E+00  0.00000000E+00
  0.00000000E+00  0.00000000E+00  0.00000000E+00
  0.00000000E+00  0.00000000E+00  0.00000000E+00
  0.00000000E+00  0.00000000E+00  0.00000000E+00
  0.00000000E+00  0.00000000E+00  0.00000000E+00
  0.00000000E+00  0.00000000E+00  0.00000000E+00
  0.00000000E+00  0.00000000E+00  0.00000000E+00
  0.00000000E+00  0.00000000E+00  0.00000000E+00
  0.00000000E+00  0.00000000E+00  0.00000000E+00
  0.00000000E+00  0.00000000E+00  0.00000000E+00
  0.00000000E+00  0.00000000E+00  0.00000000E+00
  0.00000000E+00  0.00000000E+00  0.00000000E+00
  0.00000000E+00  0.00000000E+00  0.00000000E+00
  0.00000000E+00  0.00000000E+00  0.00000000E+00
  0.00000000E+00  0.00000000E+00  0.00000000E+00
  0.00000000E+00  0.00000000E+00  0.00000000E+00
  0.00000000E+00  0.00000000E+00  0.00000000E+00
  0.00000000E+00  0.00000000E+00  0.00000000E+00
  0.00000000E+00  0.00000000E+00  0.00000000E+00
  0.00000000E+00  0.00000000E+00  0.00000000E+00
