CONTCAR1-CC                             
   1.00000000000000     
    15.1106004714999997    0.0000000000000000    0.0000000000000000
    -1.0800946320000000   12.1474763860999992    0.0000000000000000
     0.0000000000000000    0.0000000000000000   23.9724006653000004
   Zr   O    H    C 
    49    98    14     6
Selective dynamics
Direct
  0.0884800019999972  0.3208299900000000  0.0382400000000018   F   F   F
  0.3384799809999990  0.8208300020000010  0.0382400000000018   F   F   F
  0.5884799860000030  0.3208299900000000  0.0382400000000018   F   F   F
  0.8384800119999980  0.8208300020000010  0.0382400000000018   F   F   F
  0.0702000060000003  0.8335499499999983  0.0487300010000027   F   F   F
  0.3201999839999985  0.3335499969999987  0.0487300010000027   F   F   F
  0.5702000369999993  0.8335499499999983  0.0487300010000027   F   F   F
  0.8202000149999975  0.3335499969999987  0.0487300010000027   F   F   F
  0.2378299969999986  0.0677800019999992  0.0570299999999975   F   F   F
  0.4878300390000021  0.5677800090000034  0.0570299999999975   F   F   F
  0.7378300120000034  0.0677800019999992  0.0570299999999975   F   F   F
  0.9878299749999968  0.5677800090000034  0.0570299999999975   F   F   F
  0.2195499930000011  0.5805100059999972  0.0675199989999982   F   F   F
  0.4695499979999980  0.0805099990000002  0.0675199989999982   F   F   F
  0.7195499930000011  0.5805100059999972  0.0675199989999982   F   F   F
  0.9695499979999980  0.0805099990000002  0.0675199989999982   F   F   F
  0.1059841699630582  0.9830720311653423  0.1709212249765883   T   T   T
  0.3562501639278963  0.4837545804013672  0.1711019894450843   T   T   T
  0.6076681765485787  0.9844569861928889  0.1712734958931037   T   T   T
  0.8552235994528488  0.4825199833662595  0.1732092284467370   T   T   T
  0.0892344809534649  0.4948221719163755  0.1825236205277534   T   T   T
  0.3390163176278875  0.9949282323953739  0.1821883203081214   T   T   T
  0.5891767905420977  0.4926576981409383  0.1821104597538010   T   T   T
  0.8387742807524674  0.9958175949770691  0.1827065909616294   T   T   T
  0.0045264083620538  0.2304486747652206  0.1913923476089820   T   T   T
  0.2531510183940497  0.7299202983190440  0.1912722091697390   T   T   T
  0.5038083684031065  0.2289197615836756  0.1908486558903775   T   T   T
  0.7573574822438474  0.7303751686115518  0.1908758755839699   T   T   T
  0.2395268699673920  0.2419523132302999  0.2007183271361725   T   T   T
  0.4880425077280748  0.7429164652299747  0.1998886604263959   T   T   T
  0.7410469056036177  0.2455657256426420  0.2039477677874615   T   T   T
  0.9889117800967071  0.7405717550777524  0.2018595871025823   T   T   T
  0.1228437120526635  0.6412533441409920  0.3141104389306903   T   T   T
  0.3712569373359784  0.1395969608399099  0.3129241126303555   T   T   T
  0.6230901168885978  0.6471582395051740  0.3048200980701807   T   T   T
  0.8741912471435498  0.1395060184250454  0.3139569079727593   T   T   T
  0.1095151135801018  0.1611392728666559  0.3123951984822924   T   T   T
  0.3579952774373041  0.6597679910285805  0.3126094344469337   T   T   T
  0.6057627654659754  0.1579141626072413  0.3135491142630329   T   T   T
  0.8590373671594236  0.6621019085738027  0.3175027100449341   T   T   T
  0.0266667739034148  0.8892441467951073  0.3242572566675861   T   T   T
  0.2752333930771229  0.3885851925879820  0.3253301461998674   T   T   T
  0.5242721589227060  0.8868941086964739  0.3247663313429285   T   T   T
  0.7815523008231366  0.3827057278291974  0.3342009300857498   T   T   T
  0.0108149217380387  0.4071646159388962  0.3356814645387658   T   T   T
  0.2585582677761735  0.9068157303809201  0.3360811182659873   T   T   T
  0.5068857601178465  0.4001042941572024  0.3342679166375078   T   T   T
  0.7594134823031169  0.9082032763027215  0.3363561820854031   T   T   T
  0.6982498387068219  0.5507276985840335  0.4213753801492430   T   T   T
  0.0244000009999965  0.1725499900000003  0.0000000000000000   F   F   F
  0.2743999890000026  0.6725500209999993  0.0000000000000000   F   F   F
  0.5243999930000030  0.1725499900000003  0.0000000000000000   F   F   F
  0.7743999890000026  0.6725500209999993  0.0000000000000000   F   F   F
  0.2145499989999990  0.4315699679999980  0.0158100000000019   F   F   F
  0.4645500080000033  0.9315699610000010  0.0158100000000019   F   F   F
  0.7145500780000020  0.4315699679999980  0.0158100000000019   F   F   F
  0.9645500390000024  0.9315699610000010  0.0158100000000019   F   F   F
  0.2067299980000001  0.8909299700000020  0.0249000009999989   F   F   F
  0.4567300049999972  0.3909299780000026  0.0249000009999989   F   F   F
  0.7067299659999975  0.8909299700000020  0.0249000009999989   F   F   F
  0.9567300360000033  0.3909299780000026  0.0249000009999989   F   F   F
  0.1974799959999984  0.2260999960000021  0.0441799990000007   F   F   F
  0.4474800229999971  0.7261000270000011  0.0441799990000007   F   F   F
  0.6974800269999974  0.2260999960000021  0.0441799990000007   F   F   F
  0.9474799919999981  0.7261000270000011  0.0441799990000007   F   F   F
  0.1105399989999967  0.6752399410000010  0.0615799970000026   F   F   F
  0.3605400160000016  0.1752399880000013  0.0615799970000026   F   F   F
  0.6105399750000018  0.6752399410000010  0.0615799970000026   F   F   F
  0.8605399850000026  0.1752399880000013  0.0615799970000026   F   F   F
  0.1012899990000022  0.0104099989999966  0.0808599969999975   F   F   F
  0.3512900010000024  0.5104099989999966  0.0808599969999975   F   F   F
  0.6012899750000003  0.0104099989999966  0.0808599969999975   F   F   F
  0.8512899380000007  0.5104099989999966  0.0808599969999975   F   F   F
  0.0934799970000029  0.4697599980000007  0.0899500009999983   F   F   F
  0.3434799950000027  0.9697599510000003  0.0899500009999983   F   F   F
  0.5934800050000035  0.4697599980000007  0.0899500009999983   F   F   F
  0.8434799639999966  0.9697599510000003  0.0899500009999983   F   F   F
  0.0336199999999991  0.2287800049999973  0.1057599960000033   F   F   F
  0.2836199919999984  0.7287799770000021  0.1057599960000033   F   F   F
  0.5336199679999964  0.2287800049999973  0.1057599960000033   F   F   F
  0.7836200229999974  0.7287799770000021  0.1057599960000033   F   F   F
  0.0453646360010751  0.8331581970808273  0.1335775906645580   T   T   T
  0.2964001915214283  0.3338518737257701  0.1335229759176357   T   T   T
  0.5464127497719318  0.8338660666970554  0.1334610997789056   T   T   T
  0.7958762053880335  0.3326406129159309  0.1340798348830816   T   T   T
  0.2313732524137180  0.0934044202680226  0.1462083259256062   T   T   T
  0.4816385384712021  0.5935205244602315  0.1466762840506206   T   T   T
  0.7316900846993732  0.0937869798516360  0.1469263633145061   T   T   T
  0.9816395636215773  0.5933947061910274  0.1468949482937987   T   T   T
  0.2255812287701673  0.5522162499115808  0.1604998337446872   T   T   T
  0.4761778287872005  0.0510083910182644  0.1606735030573603   T   T   T
  0.7250152038847162  0.5521638800399487  0.1606093592603060   T   T   T
  0.9751322350035352  0.0524571801803262  0.1607874803887768   T   T   T
  0.2149426371190870  0.8901693642246684  0.1808802601364334   T   T   T
  0.4645015490982871  0.3897042480203368  0.1808771271473404   T   T   T
  0.7150295387259504  0.8895431184702076  0.1811917722626504   T   T   T
  0.9650923182901323  0.3905387296206797  0.1820390117437469   T   T   T
  0.1298307209405181  0.3350346375757525  0.1923669574264437   T   T   T
  0.3790173124964085  0.8350292002565922  0.1934304026768103   T   T   T
  0.6280568785952880  0.3349057573456875  0.1942458264875029   T   T   T
  0.8797522327507110  0.8366832201926613  0.1937869087110826   T   T   T
  0.1175302713114093  0.6713100375736616  0.2143279596203769   T   T   T
  0.3670043159227276  0.1694371004969497  0.2128501818110280   T   T   T
  0.6184808845195917  0.6707918890968756  0.2138262189085864   T   T   T
  0.8679031258420054  0.1706957178509398  0.2160505598932900   T   T   T
  0.1154470479787406  0.1304812499030348  0.2238508879426391   T   T   T
  0.3639901437377020  0.6310277457896376  0.2239740158546368   T   T   T
  0.6148903292493131  0.1313761910063818  0.2249858481854048   T   T   T
  0.8641190446035338  0.6321607835303595  0.2246496180913553   T   T   T
  0.0472885687103641  0.8935153522236874  0.2397532511361717   T   T   T
  0.2969104988377609  0.3957099991278241  0.2405918707914623   T   T   T
  0.5473294970355553  0.8933930282971332  0.2400946552592842   T   T   T
  0.7956116836465483  0.3941282134068231  0.2412447865849927   T   T   T
  0.0696928106750363  0.4923068146327978  0.2687682690769151   T   T   T
  0.3147911212061913  0.9922383027558936  0.2682978933303346   T   T   T
  0.5621036199521043  0.4936852003610142  0.2688431444241317   T   T   T
  0.8111834504486879  0.9941388535820934  0.2685282455473441   T   T   T
  0.2507626322058130  0.7501752859388446  0.2825773961026883   T   T   T
  0.4970285520943989  0.2495093397845594  0.2810982735462417   T   T   T
  0.7502379623144222  0.7492707216271484  0.2827969984681928   T   T   T
  0.0048853169099772  0.2511570321113652  0.2814450087920903   T   T   T
  0.2455947013596713  0.2140149220339751  0.2910160042073784   T   T   T
  0.4941754898808668  0.7121713210792322  0.2903834596634169   T   T   T
  0.7438421611387298  0.2155379560962203  0.2962751348584263   T   T   T
  0.9947786159755907  0.7117621628493112  0.2927241726905763   T   T   T
  0.2389421878939757  0.5544174093285932  0.3292385747878370   T   T   T
  0.4858694663641288  0.0518921969378567  0.3267274530136319   T   T   T
  0.7321020445117128  0.5530983995595591  0.3275167109400741   T   T   T
  0.9893635472588969  0.0555580548807768  0.3283168407694248   T   T   T
  0.1469401002638691  0.0037974984031806  0.3305781671403807   T   T   T
  0.3981514337172172  0.5047765555478705  0.3340195322953008   T   T   T
  0.6431799226153174  0.0000420457124264  0.3337936402266877   T   T   T
  0.8963747407981373  0.5000632320836331  0.3273742173924887   T   T   T
  0.1374363124389646  0.3212908079539787  0.3513638370975940   T   T   T
  0.3856866012660092  0.8193854072323674  0.3509877727208988   T   T   T
  0.6175380810595144  0.3102580271359159  0.3542559300704369   T   T   T
  0.8898023905283168  0.8340403804413441  0.3455885403816765   T   T   T
  0.1316455920158361  0.7997299959998827  0.3562924505869702   T   T   T
  0.3804860270628794  0.2989586707282257  0.3552580744574172   T   T   T
  0.6287609380420491  0.7933633025751234  0.3545086447433903   T   T   T
  0.8905641911229480  0.2942645668278914  0.3557916581207863   T   T   T
  0.0653784877912571  0.5442087906544728  0.3747155125610604   T   T   T
  0.3156102504232763  0.0428947863220870  0.3744747229465801   T   T   T
  0.5768768161240985  0.5412058446675516  0.3782596656895194   T   T   T
  0.8155641039962660  0.0428401128935008  0.3749251030345135   T   T   T
  0.8121930978149123  0.6661653038457942  0.4052980797557666   T   T   T
  0.7559665540468927  0.4155824437218527  0.4178044540159433   T   T   T
  0.8401383929898643  0.7202981696120929  0.4309351115547457   T   T   T
  0.4573016542088908  0.5097028274516404  0.5983573633847286   T   T   T
  0.6178816427262532  0.4723305211168594  0.5781638760987420   T   T   T
  0.4843622964665144  0.2706951032661351  0.5642676084554381   T   T   T
  0.5841472044440295  0.4259264207388256  0.5114299816809336   T   T   T
  0.4002903813476593  0.3107220610508250  0.6098287386007613   T   T   T
  0.5138061134499026  0.3313065323391697  0.6296899546787742   T   T   T
  0.5607667988459824  0.6565020735844271  0.5594894964316310   T   T   T
  0.4266636245025950  0.4510183066672298  0.5333009331182197   T   T   T
  0.5313106026623231  0.6143062862978326  0.4913868062026623   T   T   T
  0.7214912276794863  0.6196121769859602  0.5384098700840170   T   T   T
  0.7542029561413841  0.7979864801874541  0.4890548836446271   T   T   T
  0.6609586865551194  0.8102436359172884  0.5322131060580517   T   T   T
  0.6460908367670299  0.7897539264900857  0.4596371183372696   T   T   T
  0.4677416275390982  0.3340509465086967  0.5942450402968973   T   T   T
  0.5683384222893295  0.4833384976778348  0.5452364278664135   T   T   T
  0.4752760330199237  0.4482938932078753  0.5675183931312802   T   T   T
  0.5799797839080725  0.6027633029910362  0.5249666071048651   T   T   T
  0.6748764121919493  0.6396529248700489  0.5050795787659084   T   T   T
  0.6847179165073030  0.7650344657545389  0.4959268987786132   T   T   T
 
  0.00000000E+00  0.00000000E+00  0.00000000E+00
  0.00000000E+00  0.00000000E+00  0.00000000E+00
  0.00000000E+00  0.00000000E+00  0.00000000E+00
  0.00000000E+00  0.00000000E+00  0.00000000E+00
  0.00000000E+00  0.00000000E+00  0.00000000E+00
  0.00000000E+00  0.00000000E+00  0.00000000E+00
  0.00000000E+00  0.00000000E+00  0.00000000E+00
  0.00000000E+00  0.00000000E+00  0.00000000E+00
  0.00000000E+00  0.00000000E+00  0.00000000E+00
  0.00000000E+00  0.00000000E+00  0.00000000E+00
  0.00000000E+00  0.00000000E+00  0.00000000E+00
  0.00000000E+00  0.00000000E+00  0.00000000E+00
  0.00000000E+00  0.00000000E+00  0.00000000E+00
  0.00000000E+00  0.00000000E+00  0.00000000E+00
  0.00000000E+00  0.00000000E+00  0.00000000E+00
  0.00000000E+00  0.00000000E+00  0.00000000E+00
  0.00000000E+00  0.00000000E+00  0.00000000E+00
  0.00000000E+00  0.00000000E+00  0.00000000E+00
  0.00000000E+00  0.00000000E+00  0.00000000E+00
  0.00000000E+00  0.00000000E+00  0.00000000E+00
  0.00000000E+00  0.00000000E+00  0.00000000E+00
  0.00000000E+00  0.00000000E+00  0.00000000E+00
  0.00000000E+00  0.00000000E+00  0.00000000E+00
  0.00000000E+00  0.00000000E+00  0.00000000E+00
  0.00000000E+00  0.00000000E+00  0.00000000E+00
  0.00000000E+00  0.00000000E+00  0.00000000E+00
  0.00000000E+00  0.00000000E+00  0.00000000E+00
  0.00000000E+00  0.00000000E+00  0.00000000E+00
  0.00000000E+00  0.00000000E+00  0.00000000E+00
  0.00000000E+00  0.00000000E+00  0.00000000E+00
  0.00000000E+00  0.00000000E+00  0.00000000E+00
  0.00000000E+00  0.00000000E+00  0.00000000E+00
  0.00000000E+00  0.00000000E+00  0.00000000E+00
  0.00000000E+00  0.00000000E+00  0.00000000E+00
  0.00000000E+00  0.00000000E+00  0.00000000E+00
  0.00000000E+00  0.00000000E+00  0.00000000E+00
  0.00000000E+00  0.00000000E+00  0.00000000E+00
  0.00000000E+00  0.00000000E+00  0.00000000E+00
  0.00000000E+00  0.00000000E+00  0.00000000E+00
  0.00000000E+00  0.00000000E+00  0.00000000E+00
  0.00000000E+00  0.00000000E+00  0.00000000E+00
  0.00000000E+00  0.00000000E+00  0.00000000E+00
  0.00000000E+00  0.00000000E+00  0.00000000E+00
  0.00000000E+00  0.00000000E+00  0.00000000E+00
  0.00000000E+00  0.00000000E+00  0.00000000E+00
  0.00000000E+00  0.00000000E+00  0.00000000E+00
  0.00000000E+00  0.00000000E+00  0.00000000E+00
  0.00000000E+00  0.00000000E+00  0.00000000E+00
  0.00000000E+00  0.00000000E+00  0.00000000E+00
  0.00000000E+00  0.00000000E+00  0.00000000E+00
  0.00000000E+00  0.00000000E+00  0.00000000E+00
  0.00000000E+00  0.00000000E+00  0.00000000E+00
  0.00000000E+00  0.00000000E+00  0.00000000E+00
  0.00000000E+00  0.00000000E+00  0.00000000E+00
  0.00000000E+00  0.00000000E+00  0.00000000E+00
  0.00000000E+00  0.00000000E+00  0.00000000E+00
  0.00000000E+00  0.00000000E+00  0.00000000E+00
  0.00000000E+00  0.00000000E+00  0.00000000E+00
  0.00000000E+00  0.00000000E+00  0.00000000E+00
  0.00000000E+00  0.00000000E+00  0.00000000E+00
  0.00000000E+00  0.00000000E+00  0.00000000E+00
  0.00000000E+00  0.00000000E+00  0.00000000E+00
  0.00000000E+00  0.00000000E+00  0.00000000E+00
  0.00000000E+00  0.00000000E+00  0.00000000E+00
  0.00000000E+00  0.00000000E+00  0.00000000E+00
  0.00000000E+00  0.00000000E+00  0.00000000E+00
  0.00000000E+00  0.00000000E+00  0.00000000E+00
  0.00000000E+00  0.00000000E+00  0.00000000E+00
  0.00000000E+00  0.00000000E+00  0.00000000E+00
  0.00000000E+00  0.00000000E+00  0.00000000E+00
  0.00000000E+00  0.00000000E+00  0.00000000E+00
  0.00000000E+00  0.00000000E+00  0.00000000E+00
  0.00000000E+00  0.00000000E+00  0.00000000E+00
  0.00000000E+00  0.00000000E+00  0.00000000E+00
  0.00000000E+00  0.00000000E+00  0.00000000E+00
  0.00000000E+00  0.00000000E+00  0.00000000E+00
  0.00000000E+00  0.00000000E+00  0.00000000E+00
  0.00000000E+00  0.00000000E+00  0.00000000E+00
  0.00000000E+00  0.00000000E+00  0.00000000E+00
  0.00000000E+00  0.00000000E+00  0.00000000E+00
  0.00000000E+00  0.00000000E+00  0.00000000E+00
  0.00000000E+00  0.00000000E+00  0.00000000E+00
  0.00000000E+00  0.00000000E+00  0.00000000E+00
  0.00000000E+00  0.00000000E+00  0.00000000E+00
  0.00000000E+00  0.00000000E+00  0.00000000E+00
  0.00000000E+00  0.00000000E+00  0.00000000E+00
  0.00000000E+00  0.00000000E+00  0.00000000E+00
  0.00000000E+00  0.00000000E+00  0.00000000E+00
  0.00000000E+00  0.00000000E+00  0.00000000E+00
  0.00000000E+00  0.00000000E+00  0.00000000E+00
  0.00000000E+00  0.00000000E+00  0.00000000E+00
  0.00000000E+00  0.00000000E+00  0.00000000E+00
  0.00000000E+00  0.00000000E+00  0.00000000E+00
  0.00000000E+00  0.00000000E+00  0.00000000E+00
  0.00000000E+00  0.00000000E+00  0.00000000E+00
  0.00000000E+00  0.00000000E+00  0.00000000E+00
  0.00000000E+00  0.00000000E+00  0.00000000E+00
  0.00000000E+00  0.00000000E+00  0.00000000E+00
  0.00000000E+00  0.00000000E+00  0.00000000E+00
  0.00000000E+00  0.00000000E+00  0.00000000E+00
  0.00000000E+00  0.00000000E+00  0.00000000E+00
  0.00000000E+00  0.00000000E+00  0.00000000E+00
  0.00000000E+00  0.00000000E+00  0.00000000E+00
  0.00000000E+00  0.00000000E+00  0.00000000E+00
  0.00000000E+00  0.00000000E+00  0.00000000E+00
  0.00000000E+00  0.00000000E+00  0.00000000E+00
  0.00000000E+00  0.00000000E+00  0.00000000E+00
  0.00000000E+00  0.00000000E+00  0.00000000E+00
  0.00000000E+00  0.00000000E+00  0.00000000E+00
  0.00000000E+00  0.00000000E+00  0.00000000E+00
  0.00000000E+00  0.00000000E+00  0.00000000E+00
  0.00000000E+00  0.00000000E+00  0.00000000E+00
  0.00000000E+00  0.00000000E+00  0.00000000E+00
  0.00000000E+00  0.00000000E+00  0.00000000E+00
  0.00000000E+00  0.00000000E+00  0.00000000E+00
  0.00000000E+00  0.00000000E+00  0.00000000E+00
  0.00000000E+00  0.00000000E+00  0.00000000E+00
  0.00000000E+00  0.00000000E+00  0.00000000E+00
  0.00000000E+00  0.00000000E+00  0.00000000E+00
  0.00000000E+00  0.00000000E+00  0.00000000E+00
  0.00000000E+00  0.00000000E+00  0.00000000E+00
  0.00000000E+00  0.00000000E+00  0.00000000E+00
  0.00000000E+00  0.00000000E+00  0.00000000E+00
  0.00000000E+00  0.00000000E+00  0.00000000E+00
  0.00000000E+00  0.00000000E+00  0.00000000E+00
  0.00000000E+00  0.00000000E+00  0.00000000E+00
  0.00000000E+00  0.00000000E+00  0.00000000E+00
  0.00000000E+00  0.00000000E+00  0.00000000E+00
  0.00000000E+00  0.00000000E+00  0.00000000E+00
  0.00000000E+00  0.00000000E+00  0.00000000E+00
  0.00000000E+00  0.00000000E+00  0.00000000E+00
  0.00000000E+00  0.00000000E+00  0.00000000E+00
  0.00000000E+00  0.00000000E+00  0.00000000E+00
  0.00000000E+00  0.00000000E+00  0.00000000E+00
  0.00000000E+00  0.00000000E+00  0.00000000E+00
  0.00000000E+00  0.00000000E+00  0.00000000E+00
  0.00000000E+00  0.00000000E+00  0.00000000E+00
  0.00000000E+00  0.00000000E+00  0.00000000E+00
  0.00000000E+00  0.00000000E+00  0.00000000E+00
  0.00000000E+00  0.00000000E+00  0.00000000E+00
  0.00000000E+00  0.00000000E+00  0.00000000E+00
  0.00000000E+00  0.00000000E+00  0.00000000E+00
  0.00000000E+00  0.00000000E+00  0.00000000E+00
  0.00000000E+00  0.00000000E+00  0.00000000E+00
  0.00000000E+00  0.00000000E+00  0.00000000E+00
  0.00000000E+00  0.00000000E+00  0.00000000E+00
  0.00000000E+00  0.00000000E+00  0.00000000E+00
  0.00000000E+00  0.00000000E+00  0.00000000E+00
  0.00000000E+00  0.00000000E+00  0.00000000E+00
  0.00000000E+00  0.00000000E+00  0.00000000E+00
  0.00000000E+00  0.00000000E+00  0.00000000E+00
  0.00000000E+00  0.00000000E+00  0.00000000E+00
  0.00000000E+00  0.00000000E+00  0.00000000E+00
  0.00000000E+00  0.00000000E+00  0.00000000E+00
  0.00000000E+00  0.00000000E+00  0.00000000E+00
  0.00000000E+00  0.00000000E+00  0.00000000E+00
  0.00000000E+00  0.00000000E+00  0.00000000E+00
  0.00000000E+00  0.00000000E+00  0.00000000E+00
  0.00000000E+00  0.00000000E+00  0.00000000E+00
  0.00000000E+00  0.00000000E+00  0.00000000E+00
  0.00000000E+00  0.00000000E+00  0.00000000E+00
  0.00000000E+00  0.00000000E+00  0.00000000E+00
  0.00000000E+00  0.00000000E+00  0.00000000E+00
  0.00000000E+00  0.00000000E+00  0.00000000E+00
  0.00000000E+00  0.00000000E+00  0.00000000E+00
  0.00000000E+00  0.00000000E+00  0.00000000E+00
  0.00000000E+00  0.00000000E+00  0.00000000E+00
