CONTCAR\(2)                             
   1.00000000000000     
    15.1106004714999997    0.0000000000000000    0.0000000000000000
    -1.0800946320000000   12.1474763860999992    0.0000000000000000
     0.0000000000000000    0.0000000000000000   23.9724006653000004
   Zr   O    H 
    49    98     2
Selective dynamics
Direct
  0.0884800019999972  0.3208299900000000  0.0382400000000018   F   F   F
  0.3384799809999990  0.8208300020000010  0.0382400000000018   F   F   F
  0.5884799860000030  0.3208299900000000  0.0382400000000018   F   F   F
  0.8384800119999980  0.8208300020000010  0.0382400000000018   F   F   F
  0.0702000060000003  0.8335499499999983  0.0487300010000027   F   F   F
  0.3201999839999985  0.3335499969999987  0.0487300010000027   F   F   F
  0.5702000369999993  0.8335499499999983  0.0487300010000027   F   F   F
  0.8202000149999975  0.3335499969999987  0.0487300010000027   F   F   F
  0.2378299969999986  0.0677800019999992  0.0570299999999975   F   F   F
  0.4878300390000021  0.5677800090000034  0.0570299999999975   F   F   F
  0.7378300120000034  0.0677800019999992  0.0570299999999975   F   F   F
  0.9878299749999968  0.5677800090000034  0.0570299999999975   F   F   F
  0.2195499930000011  0.5805100059999972  0.0675199989999982   F   F   F
  0.4695499979999980  0.0805099990000002  0.0675199989999982   F   F   F
  0.7195499930000011  0.5805100059999972  0.0675199989999982   F   F   F
  0.9695499979999980  0.0805099990000002  0.0675199989999982   F   F   F
  0.1058315824281806  0.9824789301131460  0.1708450315683763   T   T   T
  0.3563893659173516  0.4836933600485835  0.1711024326568023   T   T   T
  0.6078986071439587  0.9841385826822417  0.1712878185242417   T   T   T
  0.8559965359912809  0.4831872192448259  0.1731970838404493   T   T   T
  0.0895256525123571  0.4947016223729577  0.1825480265652075   T   T   T
  0.3390671506280327  0.9950914393953383  0.1821778906237128   T   T   T
  0.5891928638531070  0.4925820867972917  0.1820581681598767   T   T   T
  0.8387310737745679  0.9949872612864112  0.1827770640858546   T   T   T
  0.0048191732215841  0.2301507713495994  0.1914579387356170   T   T   T
  0.2531577260702420  0.7298836092363317  0.1913385612066349   T   T   T
  0.5041635431614395  0.2288679034193493  0.1908891562506554   T   T   T
  0.7581291066387692  0.7294204601086705  0.1911401283718561   T   T   T
  0.2397968846142930  0.2419053222280283  0.2006615883737979   T   T   T
  0.4876276740105183  0.7430823082716387  0.1994201135315876   T   T   T
  0.7413629975090785  0.2447668496581201  0.2034279998604163   T   T   T
  0.9885933528594677  0.7397701004418238  0.2027447307891279   T   T   T
  0.1234906573640870  0.6412148856699744  0.3142715666903939   T   T   T
  0.3716452765724938  0.1397959827491988  0.3128879494602472   T   T   T
  0.6216814197383300  0.6488603279162675  0.3038832293904221   T   T   T
  0.8745553951040392  0.1367934069478594  0.3138650942027965   T   T   T
  0.1102165381599463  0.1610010753398399  0.3123118137476268   T   T   T
  0.3584633803947526  0.6595934624434534  0.3127757777650046   T   T   T
  0.6063286840493589  0.1578875610028589  0.3136202916025326   T   T   T
  0.8588294494843467  0.6635226863570765  0.3213281384367050   T   T   T
  0.0278432648924536  0.8888895122224625  0.3241753330351926   T   T   T
  0.2759676448250374  0.3884992630938413  0.3255185674338392   T   T   T
  0.5243546099500236  0.8878209238907644  0.3246318020303036   T   T   T
  0.7847048923024502  0.3799294652621796  0.3320989787046216   T   T   T
  0.0121411381022796  0.4069161790436340  0.3356283736836829   T   T   T
  0.2593121814187782  0.9067237755307858  0.3361670375588375   T   T   T
  0.5076714439871495  0.4000762510854088  0.3344909611637803   T   T   T
  0.7600346128841338  0.9056857241255685  0.3369013612795229   T   T   T
  0.7078341779790449  0.5546153364362993  0.4128092081085555   T   T   T
  0.0244000009999965  0.1725499900000003  0.0000000000000000   F   F   F
  0.2743999890000026  0.6725500209999993  0.0000000000000000   F   F   F
  0.5243999930000030  0.1725499900000003  0.0000000000000000   F   F   F
  0.7743999890000026  0.6725500209999993  0.0000000000000000   F   F   F
  0.2145499989999990  0.4315699679999980  0.0158100000000019   F   F   F
  0.4645500080000033  0.9315699610000010  0.0158100000000019   F   F   F
  0.7145500780000020  0.4315699679999980  0.0158100000000019   F   F   F
  0.9645500390000024  0.9315699610000010  0.0158100000000019   F   F   F
  0.2067299980000001  0.8909299700000020  0.0249000009999989   F   F   F
  0.4567300049999972  0.3909299780000026  0.0249000009999989   F   F   F
  0.7067299659999975  0.8909299700000020  0.0249000009999989   F   F   F
  0.9567300360000033  0.3909299780000026  0.0249000009999989   F   F   F
  0.1974799959999984  0.2260999960000021  0.0441799990000007   F   F   F
  0.4474800229999971  0.7261000270000011  0.0441799990000007   F   F   F
  0.6974800269999974  0.2260999960000021  0.0441799990000007   F   F   F
  0.9474799919999981  0.7261000270000011  0.0441799990000007   F   F   F
  0.1105399989999967  0.6752399410000010  0.0615799970000026   F   F   F
  0.3605400160000016  0.1752399880000013  0.0615799970000026   F   F   F
  0.6105399750000018  0.6752399410000010  0.0615799970000026   F   F   F
  0.8605399850000026  0.1752399880000013  0.0615799970000026   F   F   F
  0.1012899990000022  0.0104099989999966  0.0808599969999975   F   F   F
  0.3512900010000024  0.5104099989999966  0.0808599969999975   F   F   F
  0.6012899750000003  0.0104099989999966  0.0808599969999975   F   F   F
  0.8512899380000007  0.5104099989999966  0.0808599969999975   F   F   F
  0.0934799970000029  0.4697599980000007  0.0899500009999983   F   F   F
  0.3434799950000027  0.9697599510000003  0.0899500009999983   F   F   F
  0.5934800050000035  0.4697599980000007  0.0899500009999983   F   F   F
  0.8434799639999966  0.9697599510000003  0.0899500009999983   F   F   F
  0.0336199999999991  0.2287800049999973  0.1057599960000033   F   F   F
  0.2836199919999984  0.7287799770000021  0.1057599960000033   F   F   F
  0.5336199679999964  0.2287800049999973  0.1057599960000033   F   F   F
  0.7836200229999974  0.7287799770000021  0.1057599960000033   F   F   F
  0.0453224702952539  0.8326672004037121  0.1336925885539841   T   T   T
  0.2965640074000504  0.3338836422492122  0.1334998038756225   T   T   T
  0.5461368789089249  0.8340460914644936  0.1333058622225636   T   T   T
  0.7959418278414958  0.3327038338245600  0.1339815985412756   T   T   T
  0.2315486829763174  0.0934151855558696  0.1461709437448775   T   T   T
  0.4815414588356646  0.5934143438215500  0.1465954379484273   T   T   T
  0.7317344768101322  0.0936777446409991  0.1469186970463028   T   T   T
  0.9819696996068146  0.5932675188106984  0.1469284994885101   T   T   T
  0.2257662867210968  0.5523042759880141  0.1604972945859586   T   T   T
  0.4762988335754699  0.0509429980985274  0.1606528271143404   T   T   T
  0.7252564283424903  0.5518264040578487  0.1607621323181121   T   T   T
  0.9752603403567974  0.0522072420387971  0.1607545128787464   T   T   T
  0.2150932293866319  0.8902451002533809  0.1810364024485978   T   T   T
  0.4648279522870524  0.3894932607857697  0.1805757959074867   T   T   T
  0.7150413747802844  0.8886508692312134  0.1808994930156871   T   T   T
  0.9655647561223049  0.3903668205834592  0.1820969711009894   T   T   T
  0.1303670403442467  0.3348930429469519  0.1920019140113567   T   T   T
  0.3789257730309998  0.8351070027636140  0.1929856374415877   T   T   T
  0.6286335074517808  0.3352596437576452  0.1944281995910444   T   T   T
  0.8798816125733779  0.8362032605749192  0.1936926882651662   T   T   T
  0.1178988670575762  0.6712875908520601  0.2147356890793191   T   T   T
  0.3675276061709880  0.1696006317613623  0.2129306758977876   T   T   T
  0.6180629559006547  0.6708563357625437  0.2132653265471305   T   T   T
  0.8680396672111996  0.1695985362840133  0.2161984763052232   T   T   T
  0.1157763183927827  0.1302237851765611  0.2237584232891336   T   T   T
  0.3641682313429939  0.6308193523650303  0.2240273960497206   T   T   T
  0.6151160860669052  0.1313990214661729  0.2249495779198938   T   T   T
  0.8644736727755671  0.6318271277259342  0.2248993127302299   T   T   T
  0.0474185599971904  0.8931123309036906  0.2396913104000618   T   T   T
  0.2977570204850508  0.3956791470470122  0.2407459749480338   T   T   T
  0.5473374383106417  0.8933206627103871  0.2399573174015472   T   T   T
  0.7974880629061900  0.3926668249225287  0.2409304106446015   T   T   T
  0.0707912308251224  0.4921731231387625  0.2687740753733081   T   T   T
  0.3156726041680002  0.9921305102724602  0.2683880439821991   T   T   T
  0.5610475599868607  0.4941333800232286  0.2689252066444965   T   T   T
  0.8098911347460387  0.9931077943871998  0.2684176858141072   T   T   T
  0.2519173537957897  0.7502241169253594  0.2825753044180885   T   T   T
  0.4977978255341498  0.2504390101548353  0.2811826067317611   T   T   T
  0.7490952826059498  0.7459470462228168  0.2832309146213561   T   T   T
  0.0059816966941355  0.2513796994813404  0.2812105859023006   T   T   T
  0.2463093568032448  0.2140586155306394  0.2908926797907085   T   T   T
  0.4941401343516247  0.7127122099527128  0.2898774288170003   T   T   T
  0.7440696873146919  0.2146577556660674  0.2960201120747996   T   T   T
  0.9957131477857644  0.7106185634504740  0.2938672474069932   T   T   T
  0.2400304078611128  0.5540881316645923  0.3292397125052773   T   T   T
  0.4862334205371894  0.0524957441069347  0.3265800245248442   T   T   T
  0.7301145402886817  0.5450008218471254  0.3247838007458554   T   T   T
  0.9904335593517501  0.0555760257797431  0.3284664472950212   T   T   T
  0.1481963041958139  0.0039701794990137  0.3304308757046925   T   T   T
  0.3992366748680070  0.5051567284684211  0.3354831843588357   T   T   T
  0.6434155664651229  0.0000754094143005  0.3338809021520532   T   T   T
  0.8978240022218884  0.4997816570728446  0.3280768461714203   T   T   T
  0.1388045440862271  0.3206562341964130  0.3516378341112087   T   T   T
  0.3862636246451885  0.8190169095087683  0.3515214088731113   T   T   T
  0.6176961592122652  0.3101381570239212  0.3550859165273792   T   T   T
  0.8912923047790500  0.8381579421651892  0.3413776324848286   T   T   T
  0.1334391631658249  0.7994087566783250  0.3563116498276599   T   T   T
  0.3815804305406232  0.2991533999953120  0.3555266063375768   T   T   T
  0.6275384683026317  0.7937583972450781  0.3547656031867845   T   T   T
  0.8919535578725188  0.2920548386550479  0.3553678223322123   T   T   T
  0.0674510315103944  0.5429267015288417  0.3748911653769937   T   T   T
  0.3166960917312096  0.0430208133218244  0.3745500771097880   T   T   T
  0.5795511270726266  0.5455452753922572  0.3786859419057649   T   T   T
  0.8156439387389369  0.0412817621390644  0.3750169095080409   T   T   T
  0.8030078457669561  0.6755228279349623  0.4021063394334092   T   T   T
  0.7620400236691225  0.4185589529943172  0.4163886355128312   T   T   T
  0.6763590802212462  0.6607919657210530  0.5025187265317044   T   T   T
  0.7170070926068135  0.6906122961992764  0.4884233250708832   T   T   T
 
  0.00000000E+00  0.00000000E+00  0.00000000E+00
  0.00000000E+00  0.00000000E+00  0.00000000E+00
  0.00000000E+00  0.00000000E+00  0.00000000E+00
  0.00000000E+00  0.00000000E+00  0.00000000E+00
  0.00000000E+00  0.00000000E+00  0.00000000E+00
  0.00000000E+00  0.00000000E+00  0.00000000E+00
  0.00000000E+00  0.00000000E+00  0.00000000E+00
  0.00000000E+00  0.00000000E+00  0.00000000E+00
  0.00000000E+00  0.00000000E+00  0.00000000E+00
  0.00000000E+00  0.00000000E+00  0.00000000E+00
  0.00000000E+00  0.00000000E+00  0.00000000E+00
  0.00000000E+00  0.00000000E+00  0.00000000E+00
  0.00000000E+00  0.00000000E+00  0.00000000E+00
  0.00000000E+00  0.00000000E+00  0.00000000E+00
  0.00000000E+00  0.00000000E+00  0.00000000E+00
  0.00000000E+00  0.00000000E+00  0.00000000E+00
  0.00000000E+00  0.00000000E+00  0.00000000E+00
  0.00000000E+00  0.00000000E+00  0.00000000E+00
  0.00000000E+00  0.00000000E+00  0.00000000E+00
  0.00000000E+00  0.00000000E+00  0.00000000E+00
  0.00000000E+00  0.00000000E+00  0.00000000E+00
  0.00000000E+00  0.00000000E+00  0.00000000E+00
  0.00000000E+00  0.00000000E+00  0.00000000E+00
  0.00000000E+00  0.00000000E+00  0.00000000E+00
  0.00000000E+00  0.00000000E+00  0.00000000E+00
  0.00000000E+00  0.00000000E+00  0.00000000E+00
  0.00000000E+00  0.00000000E+00  0.00000000E+00
  0.00000000E+00  0.00000000E+00  0.00000000E+00
  0.00000000E+00  0.00000000E+00  0.00000000E+00
  0.00000000E+00  0.00000000E+00  0.00000000E+00
  0.00000000E+00  0.00000000E+00  0.00000000E+00
  0.00000000E+00  0.00000000E+00  0.00000000E+00
  0.00000000E+00  0.00000000E+00  0.00000000E+00
  0.00000000E+00  0.00000000E+00  0.00000000E+00
  0.00000000E+00  0.00000000E+00  0.00000000E+00
  0.00000000E+00  0.00000000E+00  0.00000000E+00
  0.00000000E+00  0.00000000E+00  0.00000000E+00
  0.00000000E+00  0.00000000E+00  0.00000000E+00
  0.00000000E+00  0.00000000E+00  0.00000000E+00
  0.00000000E+00  0.00000000E+00  0.00000000E+00
  0.00000000E+00  0.00000000E+00  0.00000000E+00
  0.00000000E+00  0.00000000E+00  0.00000000E+00
  0.00000000E+00  0.00000000E+00  0.00000000E+00
  0.00000000E+00  0.00000000E+00  0.00000000E+00
  0.00000000E+00  0.00000000E+00  0.00000000E+00
  0.00000000E+00  0.00000000E+00  0.00000000E+00
  0.00000000E+00  0.00000000E+00  0.00000000E+00
  0.00000000E+00  0.00000000E+00  0.00000000E+00
  0.00000000E+00  0.00000000E+00  0.00000000E+00
  0.00000000E+00  0.00000000E+00  0.00000000E+00
  0.00000000E+00  0.00000000E+00  0.00000000E+00
  0.00000000E+00  0.00000000E+00  0.00000000E+00
  0.00000000E+00  0.00000000E+00  0.00000000E+00
  0.00000000E+00  0.00000000E+00  0.00000000E+00
  0.00000000E+00  0.00000000E+00  0.00000000E+00
  0.00000000E+00  0.00000000E+00  0.00000000E+00
  0.00000000E+00  0.00000000E+00  0.00000000E+00
  0.00000000E+00  0.00000000E+00  0.00000000E+00
  0.00000000E+00  0.00000000E+00  0.00000000E+00
  0.00000000E+00  0.00000000E+00  0.00000000E+00
  0.00000000E+00  0.00000000E+00  0.00000000E+00
  0.00000000E+00  0.00000000E+00  0.00000000E+00
  0.00000000E+00  0.00000000E+00  0.00000000E+00
  0.00000000E+00  0.00000000E+00  0.00000000E+00
  0.00000000E+00  0.00000000E+00  0.00000000E+00
  0.00000000E+00  0.00000000E+00  0.00000000E+00
  0.00000000E+00  0.00000000E+00  0.00000000E+00
  0.00000000E+00  0.00000000E+00  0.00000000E+00
  0.00000000E+00  0.00000000E+00  0.00000000E+00
  0.00000000E+00  0.00000000E+00  0.00000000E+00
  0.00000000E+00  0.00000000E+00  0.00000000E+00
  0.00000000E+00  0.00000000E+00  0.00000000E+00
  0.00000000E+00  0.00000000E+00  0.00000000E+00
  0.00000000E+00  0.00000000E+00  0.00000000E+00
  0.00000000E+00  0.00000000E+00  0.00000000E+00
  0.00000000E+00  0.00000000E+00  0.00000000E+00
  0.00000000E+00  0.00000000E+00  0.00000000E+00
  0.00000000E+00  0.00000000E+00  0.00000000E+00
  0.00000000E+00  0.00000000E+00  0.00000000E+00
  0.00000000E+00  0.00000000E+00  0.00000000E+00
  0.00000000E+00  0.00000000E+00  0.00000000E+00
  0.00000000E+00  0.00000000E+00  0.00000000E+00
  0.00000000E+00  0.00000000E+00  0.00000000E+00
  0.00000000E+00  0.00000000E+00  0.00000000E+00
  0.00000000E+00  0.00000000E+00  0.00000000E+00
  0.00000000E+00  0.00000000E+00  0.00000000E+00
  0.00000000E+00  0.00000000E+00  0.00000000E+00
  0.00000000E+00  0.00000000E+00  0.00000000E+00
  0.00000000E+00  0.00000000E+00  0.00000000E+00
  0.00000000E+00  0.00000000E+00  0.00000000E+00
  0.00000000E+00  0.00000000E+00  0.00000000E+00
  0.00000000E+00  0.00000000E+00  0.00000000E+00
  0.00000000E+00  0.00000000E+00  0.00000000E+00
  0.00000000E+00  0.00000000E+00  0.00000000E+00
  0.00000000E+00  0.00000000E+00  0.00000000E+00
  0.00000000E+00  0.00000000E+00  0.00000000E+00
  0.00000000E+00  0.00000000E+00  0.00000000E+00
  0.00000000E+00  0.00000000E+00  0.00000000E+00
  0.00000000E+00  0.00000000E+00  0.00000000E+00
  0.00000000E+00  0.00000000E+00  0.00000000E+00
  0.00000000E+00  0.00000000E+00  0.00000000E+00
  0.00000000E+00  0.00000000E+00  0.00000000E+00
  0.00000000E+00  0.00000000E+00  0.00000000E+00
  0.00000000E+00  0.00000000E+00  0.00000000E+00
  0.00000000E+00  0.00000000E+00  0.00000000E+00
  0.00000000E+00  0.00000000E+00  0.00000000E+00
  0.00000000E+00  0.00000000E+00  0.00000000E+00
  0.00000000E+00  0.00000000E+00  0.00000000E+00
  0.00000000E+00  0.00000000E+00  0.00000000E+00
  0.00000000E+00  0.00000000E+00  0.00000000E+00
  0.00000000E+00  0.00000000E+00  0.00000000E+00
  0.00000000E+00  0.00000000E+00  0.00000000E+00
  0.00000000E+00  0.00000000E+00  0.00000000E+00
  0.00000000E+00  0.00000000E+00  0.00000000E+00
  0.00000000E+00  0.00000000E+00  0.00000000E+00
  0.00000000E+00  0.00000000E+00  0.00000000E+00
  0.00000000E+00  0.00000000E+00  0.00000000E+00
  0.00000000E+00  0.00000000E+00  0.00000000E+00
  0.00000000E+00  0.00000000E+00  0.00000000E+00
  0.00000000E+00  0.00000000E+00  0.00000000E+00
  0.00000000E+00  0.00000000E+00  0.00000000E+00
  0.00000000E+00  0.00000000E+00  0.00000000E+00
  0.00000000E+00  0.00000000E+00  0.00000000E+00
  0.00000000E+00  0.00000000E+00  0.00000000E+00
  0.00000000E+00  0.00000000E+00  0.00000000E+00
  0.00000000E+00  0.00000000E+00  0.00000000E+00
  0.00000000E+00  0.00000000E+00  0.00000000E+00
  0.00000000E+00  0.00000000E+00  0.00000000E+00
  0.00000000E+00  0.00000000E+00  0.00000000E+00
  0.00000000E+00  0.00000000E+00  0.00000000E+00
  0.00000000E+00  0.00000000E+00  0.00000000E+00
  0.00000000E+00  0.00000000E+00  0.00000000E+00
  0.00000000E+00  0.00000000E+00  0.00000000E+00
  0.00000000E+00  0.00000000E+00  0.00000000E+00
  0.00000000E+00  0.00000000E+00  0.00000000E+00
  0.00000000E+00  0.00000000E+00  0.00000000E+00
  0.00000000E+00  0.00000000E+00  0.00000000E+00
  0.00000000E+00  0.00000000E+00  0.00000000E+00
  0.00000000E+00  0.00000000E+00  0.00000000E+00
  0.00000000E+00  0.00000000E+00  0.00000000E+00
  0.00000000E+00  0.00000000E+00  0.00000000E+00
  0.00000000E+00  0.00000000E+00  0.00000000E+00
  0.00000000E+00  0.00000000E+00  0.00000000E+00
  0.00000000E+00  0.00000000E+00  0.00000000E+00
  0.00000000E+00  0.00000000E+00  0.00000000E+00
  0.00000000E+00  0.00000000E+00  0.00000000E+00
  0.00000000E+00  0.00000000E+00  0.00000000E+00
  0.00000000E+00  0.00000000E+00  0.00000000E+00
  0.00000000E+00  0.00000000E+00  0.00000000E+00
