CONTCAR-propene_1                       
   1.00000000000000     
    15.1106004714999997    0.0000000000000000    0.0000000000000000
    -1.0800946320000000   12.1474763860999992    0.0000000000000000
     0.0000000000000000    0.0000000000000000   23.9724006653000004
   Zr   O    H    C 
    49    98     6     3
Selective dynamics
Direct
  0.0884800019999972  0.3208299900000000  0.0382400000000018   F   F   F
  0.3384799809999990  0.8208300020000010  0.0382400000000018   F   F   F
  0.5884799860000030  0.3208299900000000  0.0382400000000018   F   F   F
  0.8384800119999980  0.8208300020000010  0.0382400000000018   F   F   F
  0.0702000060000003  0.8335499499999983  0.0487300010000027   F   F   F
  0.3201999839999985  0.3335499969999987  0.0487300010000027   F   F   F
  0.5702000369999993  0.8335499499999983  0.0487300010000027   F   F   F
  0.8202000149999975  0.3335499969999987  0.0487300010000027   F   F   F
  0.2378299969999986  0.0677800019999992  0.0570299999999975   F   F   F
  0.4878300390000021  0.5677800090000034  0.0570299999999975   F   F   F
  0.7378300120000034  0.0677800019999992  0.0570299999999975   F   F   F
  0.9878299749999968  0.5677800090000034  0.0570299999999975   F   F   F
  0.2195499930000011  0.5805100059999972  0.0675199989999982   F   F   F
  0.4695499979999980  0.0805099990000002  0.0675199989999982   F   F   F
  0.7195499930000011  0.5805100059999972  0.0675199989999982   F   F   F
  0.9695499979999980  0.0805099990000002  0.0675199989999982   F   F   F
  0.1054740228967717  0.9824508312081974  0.1708656372281894   T   T   T
  0.3565638866260628  0.4837355561945600  0.1710666233758289   T   T   T
  0.6077772724220836  0.9847231919674897  0.1715339328176739   T   T   T
  0.8561571585965524  0.4838248458909788  0.1726451642661999   T   T   T
  0.0894746854782937  0.4948561525317245  0.1823701872028707   T   T   T
  0.3388374818228996  0.9949645171333685  0.1820936175702670   T   T   T
  0.5889123177208191  0.4926795610160539  0.1825077732172389   T   T   T
  0.8380983741339563  0.9954067729322347  0.1830316290634713   T   T   T
  0.0044230647734054  0.2305769095919388  0.1913556708724187   T   T   T
  0.2529161613461497  0.7299462732780881  0.1912986572537960   T   T   T
  0.5042861500466245  0.2285671431933025  0.1909367599983938   T   T   T
  0.7577898993416667  0.7294475231642039  0.1913540236438251   T   T   T
  0.2395555451571667  0.2418506721904095  0.2003298465651540   T   T   T
  0.4878270261583708  0.7430886957935030  0.1996002073840444   T   T   T
  0.7404167367508023  0.2451143155240274  0.2038103959807671   T   T   T
  0.9879097827760219  0.7401184906583822  0.2028144267887413   T   T   T
  0.1232208668568120  0.6429707474923845  0.3138670189195594   T   T   T
  0.3703101599489003  0.1399398856106444  0.3123857632288605   T   T   T
  0.6218224802075554  0.6475675180232159  0.3045265377977060   T   T   T
  0.8735155310618552  0.1379576211774136  0.3140902725263501   T   T   T
  0.1096038932801875  0.1610035278320296  0.3118030355832104   T   T   T
  0.3580587985067538  0.6597106984852701  0.3127675217438366   T   T   T
  0.6034335093504453  0.1587644320167527  0.3158822353378028   T   T   T
  0.8575429980515636  0.6650243361536639  0.3221904323100802   T   T   T
  0.0263137907736422  0.8893709229142885  0.3243380769627606   T   T   T
  0.2748505715196004  0.3892701368902465  0.3251827711727131   T   T   T
  0.5235511057860691  0.8874862997167696  0.3245355350872572   T   T   T
  0.7917862372847537  0.3850912944969949  0.3304471148699619   T   T   T
  0.0156169460951716  0.4075039074098754  0.3359435008259055   T   T   T
  0.2581415779481731  0.9071156493910379  0.3360347853100407   T   T   T
  0.5047601118574363  0.3985265019040298  0.3352935494263676   T   T   T
  0.7583689787748114  0.9072097313742233  0.3373750826677906   T   T   T
  0.7062566302994497  0.5491029597763060  0.4141322275897537   T   T   T
  0.0244000009999965  0.1725499900000003  0.0000000000000000   F   F   F
  0.2743999890000026  0.6725500209999993  0.0000000000000000   F   F   F
  0.5243999930000030  0.1725499900000003  0.0000000000000000   F   F   F
  0.7743999890000026  0.6725500209999993  0.0000000000000000   F   F   F
  0.2145499989999990  0.4315699679999980  0.0158100000000019   F   F   F
  0.4645500080000033  0.9315699610000010  0.0158100000000019   F   F   F
  0.7145500780000020  0.4315699679999980  0.0158100000000019   F   F   F
  0.9645500390000024  0.9315699610000010  0.0158100000000019   F   F   F
  0.2067299980000001  0.8909299700000020  0.0249000009999989   F   F   F
  0.4567300049999972  0.3909299780000026  0.0249000009999989   F   F   F
  0.7067299659999975  0.8909299700000020  0.0249000009999989   F   F   F
  0.9567300360000033  0.3909299780000026  0.0249000009999989   F   F   F
  0.1974799959999984  0.2260999960000021  0.0441799990000007   F   F   F
  0.4474800229999971  0.7261000270000011  0.0441799990000007   F   F   F
  0.6974800269999974  0.2260999960000021  0.0441799990000007   F   F   F
  0.9474799919999981  0.7261000270000011  0.0441799990000007   F   F   F
  0.1105399989999967  0.6752399410000010  0.0615799970000026   F   F   F
  0.3605400160000016  0.1752399880000013  0.0615799970000026   F   F   F
  0.6105399750000018  0.6752399410000010  0.0615799970000026   F   F   F
  0.8605399850000026  0.1752399880000013  0.0615799970000026   F   F   F
  0.1012899990000022  0.0104099989999966  0.0808599969999975   F   F   F
  0.3512900010000024  0.5104099989999966  0.0808599969999975   F   F   F
  0.6012899750000003  0.0104099989999966  0.0808599969999975   F   F   F
  0.8512899380000007  0.5104099989999966  0.0808599969999975   F   F   F
  0.0934799970000029  0.4697599980000007  0.0899500009999983   F   F   F
  0.3434799950000027  0.9697599510000003  0.0899500009999983   F   F   F
  0.5934800050000035  0.4697599980000007  0.0899500009999983   F   F   F
  0.8434799639999966  0.9697599510000003  0.0899500009999983   F   F   F
  0.0336199999999991  0.2287800049999973  0.1057599960000033   F   F   F
  0.2836199919999984  0.7287799770000021  0.1057599960000033   F   F   F
  0.5336199679999964  0.2287800049999973  0.1057599960000033   F   F   F
  0.7836200229999974  0.7287799770000021  0.1057599960000033   F   F   F
  0.0446911355231805  0.8328608355814353  0.1336689377315068   T   T   T
  0.2966354473855901  0.3339185965819098  0.1334097117044450   T   T   T
  0.5461166922819274  0.8340650234584146  0.1333553839445898   T   T   T
  0.7955771112815455  0.3326536216403255  0.1339207978293473   T   T   T
  0.2314483850175151  0.0932819530338094  0.1460629596553815   T   T   T
  0.4815008017860265  0.5935595614271065  0.1466683491042460   T   T   T
  0.7317573262565986  0.0940007420263669  0.1469907900085232   T   T   T
  0.9818560576799698  0.5935176700545313  0.1467986468247986   T   T   T
  0.2256773118453097  0.5524799979884492  0.1604748050891303   T   T   T
  0.4761921338253003  0.0508329146707780  0.1606429549392985   T   T   T
  0.7250433611994609  0.5519178058191869  0.1607590750726544   T   T   T
  0.9744150829614071  0.0529397527627964  0.1609424231755909   T   T   T
  0.2146820082294951  0.8900742967461852  0.1807250059415324   T   T   T
  0.4647804186910065  0.3894572953265367  0.1803303072754829   T   T   T
  0.7148346882797512  0.8888525458369543  0.1808970847580866   T   T   T
  0.9657085059528825  0.3906433939589107  0.1816791615846896   T   T   T
  0.1304596309497086  0.3351035274407721  0.1915814579076880   T   T   T
  0.3786965403631370  0.8350643334420127  0.1935063814214715   T   T   T
  0.6286648533936443  0.3355054300887232  0.1944174205535845   T   T   T
  0.8793098149341105  0.8369742994396603  0.1943745658445550   T   T   T
  0.1172122671535121  0.6718895725715655  0.2145214702317944   T   T   T
  0.3671815082887662  0.1692465704951260  0.2128319201188447   T   T   T
  0.6180299367031097  0.6705220713017610  0.2136671733409088   T   T   T
  0.8669825140195115  0.1703940065785829  0.2171455994413520   T   T   T
  0.1155679986118940  0.1300466940791694  0.2233974903181419   T   T   T
  0.3638686731583931  0.6308304519242327  0.2241910812354178   T   T   T
  0.6150817388346965  0.1313890004056759  0.2254880929254881   T   T   T
  0.8643014475583186  0.6322215750288294  0.2248177417095150   T   T   T
  0.0469862863926025  0.8935478820187512  0.2398514276769177   T   T   T
  0.2980415133917091  0.3957017777332155  0.2406338367792245   T   T   T
  0.5475453673579267  0.8931525864060674  0.2399771214395088   T   T   T
  0.7992599348830183  0.3932724190558403  0.2401607528977365   T   T   T
  0.0716094944699179  0.4926680834795150  0.2686494475033072   T   T   T
  0.3133806336102296  0.9923192726572694  0.2680771267659026   T   T   T
  0.5606828844902623  0.4930736442157269  0.2693681410695561   T   T   T
  0.8080561880279049  0.9943812574469746  0.2688598726718112   T   T   T
  0.2507708634730150  0.7503684957527028  0.2825954994382727   T   T   T
  0.4973468556751683  0.2519337813475104  0.2802398126096577   T   T   T
  0.7489675520340882  0.7474542794769974  0.2836321248422919   T   T   T
  0.0071193376119894  0.2527016266721063  0.2804184185109477   T   T   T
  0.2450876152164554  0.2144803987145423  0.2903849618518066   T   T   T
  0.4939676436349885  0.7122467652164630  0.2901647343277673   T   T   T
  0.7408628148470555  0.2209848625544666  0.2979089239483486   T   T   T
  0.9945669582641941  0.7124846175845221  0.2940584295517255   T   T   T
  0.2392476104202856  0.5549344440867188  0.3284603463130793   T   T   T
  0.4837640755204689  0.0513065317184456  0.3251670436546021   T   T   T
  0.7306402029414230  0.5439796972052164  0.3236269377191192   T   T   T
  0.9888859363564535  0.0566828738993266  0.3277948729490916   T   T   T
  0.1463520358406001  0.0041417214243964  0.3305968291635821   T   T   T
  0.3975684211876498  0.5056941452563777  0.3373814964223598   T   T   T
  0.6416173651774102  0.0012154731694523  0.3357535112782770   T   T   T
  0.9014498913688413  0.5030366295436437  0.3281574072068878   T   T   T
  0.1388669897662567  0.3207041645968118  0.3520180809317495   T   T   T
  0.3853081753834289  0.8192418172215099  0.3512554536476244   T   T   T
  0.5980367717945896  0.2972170143801875  0.3651712182159201   T   T   T
  0.8897451493777808  0.8383895014807194  0.3437246132351106   T   T   T
  0.1323183403587720  0.8005272351933286  0.3564372732512524   T   T   T
  0.3786930639304131  0.2984012809360976  0.3550922264861782   T   T   T
  0.6270160508322391  0.7944095882926803  0.3545911562073840   T   T   T
  0.8960202387833363  0.2937561205593866  0.3550927118871812   T   T   T
  0.0693570715498808  0.5443706762281124  0.3751134180210158   T   T   T
  0.3153411103358366  0.0435282729574240  0.3743686111195146   T   T   T
  0.5796202373666048  0.5452056396609777  0.3782775309389450   T   T   T
  0.8145625245439234  0.0436962608010276  0.3751437215313445   T   T   T
  0.8015027357632292  0.6694067621093254  0.4030281396316084   T   T   T
  0.7593588555597819  0.4109632712307913  0.4136283881529792   T   T   T
  0.7323276895062278  0.6202975245958200  0.5327422794450598   T   T   T
  0.5184995171629723  0.3910548479730096  0.5516544052567269   T   T   T
  0.5441196980103129  0.3669948320401630  0.4813258165432472   T   T   T
  0.4999354961889537  0.4936747441194171  0.5006216047403242   T   T   T
  0.6861842315893227  0.4232333170767006  0.5335276936718500   T   T   T
  0.6173125316255650  0.6516391161407782  0.5139070964584107   T   T   T
  0.5445995201612348  0.4319982130156248  0.5133082944232115   T   T   T
  0.6642323927488434  0.5898938210015459  0.5217799889743233   T   T   T
  0.6370160227485187  0.4812499655115872  0.5236399933207707   T   T   T
 
  0.00000000E+00  0.00000000E+00  0.00000000E+00
  0.00000000E+00  0.00000000E+00  0.00000000E+00
  0.00000000E+00  0.00000000E+00  0.00000000E+00
  0.00000000E+00  0.00000000E+00  0.00000000E+00
  0.00000000E+00  0.00000000E+00  0.00000000E+00
  0.00000000E+00  0.00000000E+00  0.00000000E+00
  0.00000000E+00  0.00000000E+00  0.00000000E+00
  0.00000000E+00  0.00000000E+00  0.00000000E+00
  0.00000000E+00  0.00000000E+00  0.00000000E+00
  0.00000000E+00  0.00000000E+00  0.00000000E+00
  0.00000000E+00  0.00000000E+00  0.00000000E+00
  0.00000000E+00  0.00000000E+00  0.00000000E+00
  0.00000000E+00  0.00000000E+00  0.00000000E+00
  0.00000000E+00  0.00000000E+00  0.00000000E+00
  0.00000000E+00  0.00000000E+00  0.00000000E+00
  0.00000000E+00  0.00000000E+00  0.00000000E+00
  0.00000000E+00  0.00000000E+00  0.00000000E+00
  0.00000000E+00  0.00000000E+00  0.00000000E+00
  0.00000000E+00  0.00000000E+00  0.00000000E+00
  0.00000000E+00  0.00000000E+00  0.00000000E+00
  0.00000000E+00  0.00000000E+00  0.00000000E+00
  0.00000000E+00  0.00000000E+00  0.00000000E+00
  0.00000000E+00  0.00000000E+00  0.00000000E+00
  0.00000000E+00  0.00000000E+00  0.00000000E+00
  0.00000000E+00  0.00000000E+00  0.00000000E+00
  0.00000000E+00  0.00000000E+00  0.00000000E+00
  0.00000000E+00  0.00000000E+00  0.00000000E+00
  0.00000000E+00  0.00000000E+00  0.00000000E+00
  0.00000000E+00  0.00000000E+00  0.00000000E+00
  0.00000000E+00  0.00000000E+00  0.00000000E+00
  0.00000000E+00  0.00000000E+00  0.00000000E+00
  0.00000000E+00  0.00000000E+00  0.00000000E+00
  0.00000000E+00  0.00000000E+00  0.00000000E+00
  0.00000000E+00  0.00000000E+00  0.00000000E+00
  0.00000000E+00  0.00000000E+00  0.00000000E+00
  0.00000000E+00  0.00000000E+00  0.00000000E+00
  0.00000000E+00  0.00000000E+00  0.00000000E+00
  0.00000000E+00  0.00000000E+00  0.00000000E+00
  0.00000000E+00  0.00000000E+00  0.00000000E+00
  0.00000000E+00  0.00000000E+00  0.00000000E+00
  0.00000000E+00  0.00000000E+00  0.00000000E+00
  0.00000000E+00  0.00000000E+00  0.00000000E+00
  0.00000000E+00  0.00000000E+00  0.00000000E+00
  0.00000000E+00  0.00000000E+00  0.00000000E+00
  0.00000000E+00  0.00000000E+00  0.00000000E+00
  0.00000000E+00  0.00000000E+00  0.00000000E+00
  0.00000000E+00  0.00000000E+00  0.00000000E+00
  0.00000000E+00  0.00000000E+00  0.00000000E+00
  0.00000000E+00  0.00000000E+00  0.00000000E+00
  0.00000000E+00  0.00000000E+00  0.00000000E+00
  0.00000000E+00  0.00000000E+00  0.00000000E+00
  0.00000000E+00  0.00000000E+00  0.00000000E+00
  0.00000000E+00  0.00000000E+00  0.00000000E+00
  0.00000000E+00  0.00000000E+00  0.00000000E+00
  0.00000000E+00  0.00000000E+00  0.00000000E+00
  0.00000000E+00  0.00000000E+00  0.00000000E+00
  0.00000000E+00  0.00000000E+00  0.00000000E+00
  0.00000000E+00  0.00000000E+00  0.00000000E+00
  0.00000000E+00  0.00000000E+00  0.00000000E+00
  0.00000000E+00  0.00000000E+00  0.00000000E+00
  0.00000000E+00  0.00000000E+00  0.00000000E+00
  0.00000000E+00  0.00000000E+00  0.00000000E+00
  0.00000000E+00  0.00000000E+00  0.00000000E+00
  0.00000000E+00  0.00000000E+00  0.00000000E+00
  0.00000000E+00  0.00000000E+00  0.00000000E+00
  0.00000000E+00  0.00000000E+00  0.00000000E+00
  0.00000000E+00  0.00000000E+00  0.00000000E+00
  0.00000000E+00  0.00000000E+00  0.00000000E+00
  0.00000000E+00  0.00000000E+00  0.00000000E+00
  0.00000000E+00  0.00000000E+00  0.00000000E+00
  0.00000000E+00  0.00000000E+00  0.00000000E+00
  0.00000000E+00  0.00000000E+00  0.00000000E+00
  0.00000000E+00  0.00000000E+00  0.00000000E+00
  0.00000000E+00  0.00000000E+00  0.00000000E+00
  0.00000000E+00  0.00000000E+00  0.00000000E+00
  0.00000000E+00  0.00000000E+00  0.00000000E+00
  0.00000000E+00  0.00000000E+00  0.00000000E+00
  0.00000000E+00  0.00000000E+00  0.00000000E+00
  0.00000000E+00  0.00000000E+00  0.00000000E+00
  0.00000000E+00  0.00000000E+00  0.00000000E+00
  0.00000000E+00  0.00000000E+00  0.00000000E+00
  0.00000000E+00  0.00000000E+00  0.00000000E+00
  0.00000000E+00  0.00000000E+00  0.00000000E+00
  0.00000000E+00  0.00000000E+00  0.00000000E+00
  0.00000000E+00  0.00000000E+00  0.00000000E+00
  0.00000000E+00  0.00000000E+00  0.00000000E+00
  0.00000000E+00  0.00000000E+00  0.00000000E+00
  0.00000000E+00  0.00000000E+00  0.00000000E+00
  0.00000000E+00  0.00000000E+00  0.00000000E+00
  0.00000000E+00  0.00000000E+00  0.00000000E+00
  0.00000000E+00  0.00000000E+00  0.00000000E+00
  0.00000000E+00  0.00000000E+00  0.00000000E+00
  0.00000000E+00  0.00000000E+00  0.00000000E+00
  0.00000000E+00  0.00000000E+00  0.00000000E+00
  0.00000000E+00  0.00000000E+00  0.00000000E+00
  0.00000000E+00  0.00000000E+00  0.00000000E+00
  0.00000000E+00  0.00000000E+00  0.00000000E+00
  0.00000000E+00  0.00000000E+00  0.00000000E+00
  0.00000000E+00  0.00000000E+00  0.00000000E+00
  0.00000000E+00  0.00000000E+00  0.00000000E+00
  0.00000000E+00  0.00000000E+00  0.00000000E+00
  0.00000000E+00  0.00000000E+00  0.00000000E+00
  0.00000000E+00  0.00000000E+00  0.00000000E+00
  0.00000000E+00  0.00000000E+00  0.00000000E+00
  0.00000000E+00  0.00000000E+00  0.00000000E+00
  0.00000000E+00  0.00000000E+00  0.00000000E+00
  0.00000000E+00  0.00000000E+00  0.00000000E+00
  0.00000000E+00  0.00000000E+00  0.00000000E+00
  0.00000000E+00  0.00000000E+00  0.00000000E+00
  0.00000000E+00  0.00000000E+00  0.00000000E+00
  0.00000000E+00  0.00000000E+00  0.00000000E+00
  0.00000000E+00  0.00000000E+00  0.00000000E+00
  0.00000000E+00  0.00000000E+00  0.00000000E+00
  0.00000000E+00  0.00000000E+00  0.00000000E+00
  0.00000000E+00  0.00000000E+00  0.00000000E+00
  0.00000000E+00  0.00000000E+00  0.00000000E+00
  0.00000000E+00  0.00000000E+00  0.00000000E+00
  0.00000000E+00  0.00000000E+00  0.00000000E+00
  0.00000000E+00  0.00000000E+00  0.00000000E+00
  0.00000000E+00  0.00000000E+00  0.00000000E+00
  0.00000000E+00  0.00000000E+00  0.00000000E+00
  0.00000000E+00  0.00000000E+00  0.00000000E+00
  0.00000000E+00  0.00000000E+00  0.00000000E+00
  0.00000000E+00  0.00000000E+00  0.00000000E+00
  0.00000000E+00  0.00000000E+00  0.00000000E+00
  0.00000000E+00  0.00000000E+00  0.00000000E+00
  0.00000000E+00  0.00000000E+00  0.00000000E+00
  0.00000000E+00  0.00000000E+00  0.00000000E+00
  0.00000000E+00  0.00000000E+00  0.00000000E+00
  0.00000000E+00  0.00000000E+00  0.00000000E+00
  0.00000000E+00  0.00000000E+00  0.00000000E+00
  0.00000000E+00  0.00000000E+00  0.00000000E+00
  0.00000000E+00  0.00000000E+00  0.00000000E+00
  0.00000000E+00  0.00000000E+00  0.00000000E+00
  0.00000000E+00  0.00000000E+00  0.00000000E+00
  0.00000000E+00  0.00000000E+00  0.00000000E+00
  0.00000000E+00  0.00000000E+00  0.00000000E+00
  0.00000000E+00  0.00000000E+00  0.00000000E+00
  0.00000000E+00  0.00000000E+00  0.00000000E+00
  0.00000000E+00  0.00000000E+00  0.00000000E+00
  0.00000000E+00  0.00000000E+00  0.00000000E+00
  0.00000000E+00  0.00000000E+00  0.00000000E+00
  0.00000000E+00  0.00000000E+00  0.00000000E+00
  0.00000000E+00  0.00000000E+00  0.00000000E+00
  0.00000000E+00  0.00000000E+00  0.00000000E+00
  0.00000000E+00  0.00000000E+00  0.00000000E+00
  0.00000000E+00  0.00000000E+00  0.00000000E+00
  0.00000000E+00  0.00000000E+00  0.00000000E+00
  0.00000000E+00  0.00000000E+00  0.00000000E+00
  0.00000000E+00  0.00000000E+00  0.00000000E+00
  0.00000000E+00  0.00000000E+00  0.00000000E+00
  0.00000000E+00  0.00000000E+00  0.00000000E+00
  0.00000000E+00  0.00000000E+00  0.00000000E+00
  0.00000000E+00  0.00000000E+00  0.00000000E+00
  0.00000000E+00  0.00000000E+00  0.00000000E+00
  0.00000000E+00  0.00000000E+00  0.00000000E+00
