CONTCAR                                 
   1.00000000000000     
    15.1106004714999997    0.0000000000000000    0.0000000000000000
    -1.0800946320000000   12.1474763860999992    0.0000000000000000
     0.0000000000000000    0.0000000000000000   23.9724006653000004
   Zr   O    H    C 
    49    98    14     6
Selective dynamics
Direct
  0.0884800019999972  0.3208299900000000  0.0382400000000018   F   F   F
  0.3384799809999990  0.8208300020000010  0.0382400000000018   F   F   F
  0.5884799860000030  0.3208299900000000  0.0382400000000018   F   F   F
  0.8384800119999980  0.8208300020000010  0.0382400000000018   F   F   F
  0.0702000060000003  0.8335499499999983  0.0487300010000027   F   F   F
  0.3201999839999985  0.3335499969999987  0.0487300010000027   F   F   F
  0.5702000369999993  0.8335499499999983  0.0487300010000027   F   F   F
  0.8202000149999975  0.3335499969999987  0.0487300010000027   F   F   F
  0.2378299969999986  0.0677800019999992  0.0570299999999975   F   F   F
  0.4878300390000021  0.5677800090000034  0.0570299999999975   F   F   F
  0.7378300120000034  0.0677800019999992  0.0570299999999975   F   F   F
  0.9878299749999968  0.5677800090000034  0.0570299999999975   F   F   F
  0.2195499930000011  0.5805100059999972  0.0675199989999982   F   F   F
  0.4695499979999980  0.0805099990000002  0.0675199989999982   F   F   F
  0.7195499930000011  0.5805100059999972  0.0675199989999982   F   F   F
  0.9695499979999980  0.0805099990000002  0.0675199989999982   F   F   F
  0.1061275543432174  0.9830518586063803  0.1709353836587511   T   T   T
  0.3563677589290464  0.4837908505325714  0.1711162595651459   T   T   T
  0.6077465596747018  0.9843187707769374  0.1712347775690972   T   T   T
  0.8553897026831976  0.4826342944095074  0.1732054232951938   T   T   T
  0.0893685640360999  0.4948211886203211  0.1825993876159941   T   T   T
  0.3391137848985863  0.9949273197875428  0.1821971085726304   T   T   T
  0.5893074287158200  0.4927328491391094  0.1821222287623527   T   T   T
  0.8389706789489466  0.9958123617995227  0.1826780379867046   T   T   T
  0.0047175344970256  0.2304504801723724  0.1914483078409290   T   T   T
  0.2535015990734948  0.7299688891150709  0.1913507245181165   T   T   T
  0.5038916295051479  0.2289048753268901  0.1907997192794681   T   T   T
  0.7574951898526834  0.7303748226014619  0.1908885419119173   T   T   T
  0.2397044313576089  0.2420124805338801  0.2007520937299105   T   T   T
  0.4882882170929435  0.7428728070750097  0.2000027152311432   T   T   T
  0.7412238176639221  0.2455030455719012  0.2038762862336299   T   T   T
  0.9890714176444959  0.7405056073150931  0.2019818776594917   T   T   T
  0.1232804627910227  0.6413975429825527  0.3140531119682848   T   T   T
  0.3715670165555522  0.1393237397585736  0.3129861450829381   T   T   T
  0.6237222046965698  0.6468944964702246  0.3050111978181462   T   T   T
  0.8745663047538272  0.1393149695803118  0.3140668816793308   T   T   T
  0.1098744106366141  0.1612295494075511  0.3124507720218759   T   T   T
  0.3585484573199409  0.6595333710292977  0.3127550846159792   T   T   T
  0.6061464735571107  0.1574510088185477  0.3133123148014860   T   T   T
  0.8588303171804696  0.6621214722327622  0.3177048287386697   T   T   T
  0.0270509847635836  0.8892338756916374  0.3241838320689681   T   T   T
  0.2756321527527277  0.3885527009705569  0.3253970985432773   T   T   T
  0.5247466043311206  0.8865703449142686  0.3248340904671139   T   T   T
  0.7814054389584157  0.3826865364316561  0.3338071359590629   T   T   T
  0.0111053182134953  0.4074805805292243  0.3359686588224093   T   T   T
  0.2588721163516112  0.9066483390501361  0.3360671831813562   T   T   T
  0.5071849622005544  0.3995962029498941  0.3339577767601298   T   T   T
  0.7597839359080965  0.9077526467095254  0.3362868164999071   T   T   T
  0.6975864871763733  0.5487299754683832  0.4224269703282673   T   T   T
  0.0244000009999965  0.1725499900000003  0.0000000000000000   F   F   F
  0.2743999890000026  0.6725500209999993  0.0000000000000000   F   F   F
  0.5243999930000030  0.1725499900000003  0.0000000000000000   F   F   F
  0.7743999890000026  0.6725500209999993  0.0000000000000000   F   F   F
  0.2145499989999990  0.4315699679999980  0.0158100000000019   F   F   F
  0.4645500080000033  0.9315699610000010  0.0158100000000019   F   F   F
  0.7145500780000020  0.4315699679999980  0.0158100000000019   F   F   F
  0.9645500390000024  0.9315699610000010  0.0158100000000019   F   F   F
  0.2067299980000001  0.8909299700000020  0.0249000009999989   F   F   F
  0.4567300049999972  0.3909299780000026  0.0249000009999989   F   F   F
  0.7067299659999975  0.8909299700000020  0.0249000009999989   F   F   F
  0.9567300360000033  0.3909299780000026  0.0249000009999989   F   F   F
  0.1974799959999984  0.2260999960000021  0.0441799990000007   F   F   F
  0.4474800229999971  0.7261000270000011  0.0441799990000007   F   F   F
  0.6974800269999974  0.2260999960000021  0.0441799990000007   F   F   F
  0.9474799919999981  0.7261000270000011  0.0441799990000007   F   F   F
  0.1105399989999967  0.6752399410000010  0.0615799970000026   F   F   F
  0.3605400160000016  0.1752399880000013  0.0615799970000026   F   F   F
  0.6105399750000018  0.6752399410000010  0.0615799970000026   F   F   F
  0.8605399850000026  0.1752399880000013  0.0615799970000026   F   F   F
  0.1012899990000022  0.0104099989999966  0.0808599969999975   F   F   F
  0.3512900010000024  0.5104099989999966  0.0808599969999975   F   F   F
  0.6012899750000003  0.0104099989999966  0.0808599969999975   F   F   F
  0.8512899380000007  0.5104099989999966  0.0808599969999975   F   F   F
  0.0934799970000029  0.4697599980000007  0.0899500009999983   F   F   F
  0.3434799950000027  0.9697599510000003  0.0899500009999983   F   F   F
  0.5934800050000035  0.4697599980000007  0.0899500009999983   F   F   F
  0.8434799639999966  0.9697599510000003  0.0899500009999983   F   F   F
  0.0336199999999991  0.2287800049999973  0.1057599960000033   F   F   F
  0.2836199919999984  0.7287799770000021  0.1057599960000033   F   F   F
  0.5336199679999964  0.2287800049999973  0.1057599960000033   F   F   F
  0.7836200229999974  0.7287799770000021  0.1057599960000033   F   F   F
  0.0456024320090904  0.8330621295867431  0.1336240404261844   T   T   T
  0.2965060096525889  0.3338771188691965  0.1335298242944063   T   T   T
  0.5465861554423626  0.8337392650060664  0.1334641930616982   T   T   T
  0.7959143379064031  0.3327866574607086  0.1341016379426208   T   T   T
  0.2314114648658077  0.0933879995222071  0.1461835425325759   T   T   T
  0.4817387155986310  0.5934698212221221  0.1466910853877437   T   T   T
  0.7317938805786142  0.0938294557977741  0.1469336263534800   T   T   T
  0.9817517860523708  0.5934493745864415  0.1469125420036264   T   T   T
  0.2257326152044854  0.5522759152570558  0.1605214999302191   T   T   T
  0.4762405062502353  0.0508923005243247  0.1606451990718085   T   T   T
  0.7251846437507794  0.5521329973544198  0.1606369054926589   T   T   T
  0.9753948889969664  0.0523120604746481  0.1608153782350712   T   T   T
  0.2151120695324948  0.8901847133457608  0.1810150111282098   T   T   T
  0.4646030795728748  0.3896593272570428  0.1808855896049266   T   T   T
  0.7152099561021217  0.8895920034349345  0.1812495733161512   T   T   T
  0.9653146815263582  0.3906009351290933  0.1820920207982368   T   T   T
  0.1299490567475559  0.3350920914262261  0.1923786033467607   T   T   T
  0.3791891343312770  0.8349766650307089  0.1932865710918819   T   T   T
  0.6282371491354510  0.3349653017117618  0.1942809903105314   T   T   T
  0.8799632102472756  0.8365299008408087  0.1936837171677723   T   T   T
  0.1179485036539063  0.6711255819048318  0.2147095087453721   T   T   T
  0.3671126633829260  0.1694415281039099  0.2127382705844738   T   T   T
  0.6188174279739087  0.6708391779654406  0.2139092751838376   T   T   T
  0.8680206797616634  0.1708241228259126  0.2159808446685858   T   T   T
  0.1156613501059311  0.1304932109160646  0.2238793408409592   T   T   T
  0.3643444508077565  0.6310314750016630  0.2240930074806116   T   T   T
  0.6151336170045028  0.1312949787416926  0.2248325515716374   T   T   T
  0.8641729157825964  0.6321502991699646  0.2249044531880529   T   T   T
  0.0474043313792976  0.8933703498613426  0.2396899063364657   T   T   T
  0.2970033739246318  0.3957893642020238  0.2405923687227514   T   T   T
  0.5474221118166938  0.8932594770832623  0.2400629846148377   T   T   T
  0.7960889292455562  0.3941566388799345  0.2412977079549847   T   T   T
  0.0694754649055795  0.4922636901172410  0.2689145943713100   T   T   T
  0.3148626151154019  0.9923593996516757  0.2682935229183059   T   T   T
  0.5624223435487963  0.4936996522416521  0.2687773878620590   T   T   T
  0.8121225411980930  0.9939646174982144  0.2685851166705575   T   T   T
  0.2515761321585828  0.7501365652190444  0.2826906321862381   T   T   T
  0.4970308912693113  0.2491630704217656  0.2810893249694146   T   T   T
  0.7503638708589264  0.7495560960384182  0.2828063344008598   T   T   T
  0.0051477736978001  0.2511207165227418  0.2815070313877044   T   T   T
  0.2459179298015002  0.2142709791615829  0.2910444895410649   T   T   T
  0.4948556615396811  0.7115303137690319  0.2904362455386931   T   T   T
  0.7440917997932672  0.2150582033565556  0.2961090963154547   T   T   T
  0.9947633861627949  0.7115610306241535  0.2926975430843939   T   T   T
  0.2393128638776219  0.5542419314665352  0.3293933111066352   T   T   T
  0.4862258959168173  0.0516306815892165  0.3266141618496263   T   T   T
  0.7325290029734646  0.5525682588908793  0.3268554333220948   T   T   T
  0.9899914951925055  0.0555577562350678  0.3285002126186214   T   T   T
  0.1475922144578803  0.0039097849126151  0.3304704060210071   T   T   T
  0.3986674651589794  0.5043973062771485  0.3338530891195362   T   T   T
  0.6438161449360038  0.9998939168721179  0.3337757410238922   T   T   T
  0.8964857131649353  0.5009797750244900  0.3287524679954785   T   T   T
  0.1377177759536536  0.3213709051291929  0.3515189654198281   T   T   T
  0.3871086744103351  0.8196803744139984  0.3500586425404961   T   T   T
  0.6186287853445620  0.3102632074354688  0.3534964109687735   T   T   T
  0.8904868917649083  0.8336297475039771  0.3458895357204526   T   T   T
  0.1318719665983110  0.7998998209411781  0.3557389880713302   T   T   T
  0.3807817417220889  0.2987646688622405  0.3553886233243162   T   T   T
  0.6290849114788983  0.7933042117677545  0.3549816661651164   T   T   T
  0.8906211727484674  0.2944462838031399  0.3556068142368858   T   T   T
  0.0656537879096319  0.5448597212542126  0.3749124965141633   T   T   T
  0.3163366090667807  0.0423882838793048  0.3745558591526930   T   T   T
  0.5774644118867585  0.5395198685425839  0.3782130277977487   T   T   T
  0.8163394581193586  0.0419968406129314  0.3750041449711787   T   T   T
  0.8062725047005088  0.6710670589192915  0.4055758650529455   T   T   T
  0.7559969856455879  0.4149656367639665  0.4175366650527153   T   T   T
  0.8377449490831808  0.7211621717530079  0.4317797582715457   T   T   T
  0.3487820924138987  0.5983645855831057  0.4491744515644953   T   T   T
  0.4511861140297171  0.7696392172228883  0.4528897884346250   T   T   T
  0.2584482902955116  0.7816755556198700  0.5105646123514234   T   T   T
  0.4321861141962486  0.7828695062764197  0.5250670237911450   T   T   T
  0.2056538907792103  0.6803395152063914  0.4650497432989695   T   T   T
  0.2848688788691973  0.7845904377457842  0.4387946802918421   T   T   T
  0.5058450440379119  0.5816641138919536  0.4711778472004227   T   T   T
  0.3301882439125023  0.6047861880289389  0.5213457283952110   T   T   T
  0.4961591899281075  0.6044114488022174  0.5434721981782005   T   T   T
  0.6143740334660635  0.7527937236688373  0.4654254324831868   T   T   T
  0.6092821687301893  0.7651599884263121  0.5383385628896775   T   T   T
  0.7387267829578690  0.6619537074316355  0.5233711078958407   T   T   T
  0.6551971962471654  0.5607509374760582  0.5436259384821440   T   T   T
  0.2686541473649626  0.7289720303191700  0.4743274490753819   T   T   T
  0.4355922236321561  0.7217548358981531  0.4913346442229312   T   T   T
  0.3447640350187697  0.6568115419153955  0.4842303935575103   T   T   T
  0.5093055552681847  0.6469589528888804  0.5032760841172177   T   T   T
  0.6038310649038010  0.7038031860747651  0.5042639093524954   T   T   T
  0.6742785061593821  0.6197840685182001  0.5098590682043636   T   T   T
 
             NaN             NaN             NaN
             NaN             NaN             NaN
             NaN             NaN             NaN
             NaN             NaN             NaN
             NaN             NaN             NaN
             NaN             NaN             NaN
             NaN             NaN             NaN
             NaN             NaN             NaN
             NaN             NaN             NaN
             NaN             NaN             NaN
             NaN             NaN             NaN
             NaN             NaN             NaN
             NaN             NaN             NaN
             NaN             NaN             NaN
             NaN             NaN             NaN
             NaN             NaN             NaN
             NaN             NaN             NaN
             NaN             NaN             NaN
             NaN             NaN             NaN
             NaN             NaN             NaN
             NaN             NaN             NaN
             NaN             NaN             NaN
             NaN             NaN             NaN
             NaN             NaN             NaN
             NaN             NaN             NaN
             NaN             NaN             NaN
             NaN             NaN             NaN
             NaN             NaN             NaN
             NaN             NaN             NaN
             NaN             NaN             NaN
             NaN             NaN             NaN
             NaN             NaN             NaN
             NaN             NaN             NaN
             NaN             NaN             NaN
             NaN             NaN             NaN
             NaN             NaN             NaN
             NaN             NaN             NaN
             NaN             NaN             NaN
             NaN             NaN             NaN
             NaN             NaN             NaN
             NaN             NaN             NaN
             NaN             NaN             NaN
             NaN             NaN             NaN
             NaN             NaN             NaN
             NaN             NaN             NaN
             NaN             NaN             NaN
             NaN             NaN             NaN
             NaN             NaN             NaN
             NaN             NaN             NaN
             NaN             NaN             NaN
             NaN             NaN             NaN
             NaN             NaN             NaN
             NaN             NaN             NaN
             NaN             NaN             NaN
             NaN             NaN             NaN
             NaN             NaN             NaN
             NaN             NaN             NaN
             NaN             NaN             NaN
             NaN             NaN             NaN
             NaN             NaN             NaN
             NaN             NaN             NaN
             NaN             NaN             NaN
             NaN             NaN             NaN
             NaN             NaN             NaN
             NaN             NaN             NaN
             NaN             NaN             NaN
             NaN             NaN             NaN
             NaN             NaN             NaN
             NaN             NaN             NaN
             NaN             NaN             NaN
             NaN             NaN             NaN
             NaN             NaN             NaN
             NaN             NaN             NaN
             NaN             NaN             NaN
             NaN             NaN             NaN
             NaN             NaN             NaN
             NaN             NaN             NaN
             NaN             NaN             NaN
             NaN             NaN             NaN
             NaN             NaN             NaN
             NaN             NaN             NaN
             NaN             NaN             NaN
             NaN             NaN             NaN
             NaN             NaN             NaN
             NaN             NaN             NaN
             NaN             NaN             NaN
             NaN             NaN             NaN
             NaN             NaN             NaN
             NaN             NaN             NaN
             NaN             NaN             NaN
             NaN             NaN             NaN
             NaN             NaN             NaN
             NaN             NaN             NaN
             NaN             NaN             NaN
             NaN             NaN             NaN
             NaN             NaN             NaN
             NaN             NaN             NaN
             NaN             NaN             NaN
             NaN             NaN             NaN
             NaN             NaN             NaN
             NaN             NaN             NaN
             NaN             NaN             NaN
             NaN             NaN             NaN
             NaN             NaN             NaN
             NaN             NaN             NaN
             NaN             NaN             NaN
             NaN             NaN             NaN
             NaN             NaN             NaN
             NaN             NaN             NaN
             NaN             NaN             NaN
             NaN             NaN             NaN
             NaN             NaN             NaN
             NaN             NaN             NaN
             NaN             NaN             NaN
             NaN             NaN             NaN
             NaN             NaN             NaN
             NaN             NaN             NaN
             NaN             NaN             NaN
             NaN             NaN             NaN
             NaN             NaN             NaN
             NaN             NaN             NaN
             NaN             NaN             NaN
             NaN             NaN             NaN
             NaN             NaN             NaN
             NaN             NaN             NaN
             NaN             NaN             NaN
             NaN             NaN             NaN
             NaN             NaN             NaN
             NaN             NaN             NaN
             NaN             NaN             NaN
             NaN             NaN             NaN
             NaN             NaN             NaN
             NaN             NaN             NaN
             NaN             NaN             NaN
             NaN             NaN             NaN
             NaN             NaN             NaN
             NaN             NaN             NaN
             NaN             NaN             NaN
             NaN             NaN             NaN
             NaN             NaN             NaN
             NaN             NaN             NaN
             NaN             NaN             NaN
             NaN             NaN             NaN
             NaN             NaN             NaN
             NaN             NaN             NaN
             NaN             NaN             NaN
             NaN             NaN             NaN
             NaN             NaN             NaN
             NaN             NaN             NaN
             NaN             NaN             NaN
             NaN             NaN             NaN
             NaN             NaN             NaN
             NaN             NaN             NaN
             NaN             NaN             NaN
             NaN             NaN             NaN
             NaN             NaN             NaN
             NaN             NaN             NaN
             NaN             NaN             NaN
             NaN             NaN             NaN
             NaN             NaN             NaN
             NaN             NaN             NaN
             NaN             NaN             NaN
             NaN             NaN             NaN
             NaN             NaN             NaN
             NaN             NaN             NaN
             NaN             NaN             NaN
             NaN             NaN             NaN
