CONTCAR\(2)\(2)                         
   1.00000000000000     
    15.1106004714999997    0.0000000000000000    0.0000000000000000
    -1.0800946320000000   12.1474763860999992    0.0000000000000000
     0.0000000000000000    0.0000000000000000   23.9724006653000004
   Zr   O    H    C 
    49    98    12     6
Selective dynamics
Direct
  0.0884800019999972  0.3208299900000000  0.0382400000000018   F   F   F
  0.3384799809999990  0.8208300020000010  0.0382400000000018   F   F   F
  0.5884799860000030  0.3208299900000000  0.0382400000000018   F   F   F
  0.8384800119999980  0.8208300020000010  0.0382400000000018   F   F   F
  0.0702000060000003  0.8335499499999983  0.0487300010000027   F   F   F
  0.3201999839999985  0.3335499969999987  0.0487300010000027   F   F   F
  0.5702000369999993  0.8335499499999983  0.0487300010000027   F   F   F
  0.8202000149999975  0.3335499969999987  0.0487300010000027   F   F   F
  0.2378299969999986  0.0677800019999992  0.0570299999999975   F   F   F
  0.4878300390000021  0.5677800090000034  0.0570299999999975   F   F   F
  0.7378300120000034  0.0677800019999992  0.0570299999999975   F   F   F
  0.9878299749999968  0.5677800090000034  0.0570299999999975   F   F   F
  0.2195499930000011  0.5805100059999972  0.0675199989999982   F   F   F
  0.4695499979999980  0.0805099990000002  0.0675199989999982   F   F   F
  0.7195499930000011  0.5805100059999972  0.0675199989999982   F   F   F
  0.9695499979999980  0.0805099990000002  0.0675199989999982   F   F   F
  0.1055854211756966  0.9822296471805956  0.1709181962523871   T   T   T
  0.3562289701807373  0.4837138263952099  0.1710221287804572   T   T   T
  0.6079156325559651  0.9840528500459840  0.1712552642612337   T   T   T
  0.8558320730827802  0.4832891633814569  0.1731298692313956   T   T   T
  0.0892441808624653  0.4946374936195355  0.1825710771367497   T   T   T
  0.3389571814264727  0.9949371041393604  0.1821144441974170   T   T   T
  0.5890467334099014  0.4924288630656903  0.1818861665765681   T   T   T
  0.8386306773560435  0.9949513689905771  0.1829188998581301   T   T   T
  0.0045712652728866  0.2301252029420695  0.1914306646425175   T   T   T
  0.2529549490406922  0.7298507227448781  0.1913798580927093   T   T   T
  0.5038885620125555  0.2287150351888769  0.1907839169614505   T   T   T
  0.7579864128492062  0.7293148782842351  0.1912660357889138   T   T   T
  0.2395044026003674  0.2417320945629484  0.2005395917691359   T   T   T
  0.4876986618942638  0.7429189675486327  0.1995205905046404   T   T   T
  0.7412756578069661  0.2447738738741450  0.2033862274452218   T   T   T
  0.9882149216466516  0.7395932775939826  0.2030580975769567   T   T   T
  0.1226046109808863  0.6409112231992182  0.3144045077571889   T   T   T
  0.3712805647307249  0.1396397384129457  0.3127253689388212   T   T   T
  0.6219253378506693  0.6480059250417227  0.3041387057645437   T   T   T
  0.8742782619090903  0.1371920899016885  0.3139956428181065   T   T   T
  0.1098464503712293  0.1607427858916566  0.3122169510947472   T   T   T
  0.3581848097190914  0.6596628736797285  0.3126663628387973   T   T   T
  0.6060320825781318  0.1575689011570489  0.3134421295296050   T   T   T
  0.8570833706846344  0.6628043903732390  0.3220701272718927   T   T   T
  0.0270843870705875  0.8885203761455216  0.3244458857292898   T   T   T
  0.2751311142864310  0.3885281730998642  0.3252246448105183   T   T   T
  0.5241001897648658  0.8875971355942838  0.3245226088782616   T   T   T
  0.7839589636993409  0.3807431916864914  0.3318882191342638   T   T   T
  0.0113321527786496  0.4064687885913258  0.3356634597965282   T   T   T
  0.2588282122554872  0.9066489150083754  0.3360849955769964   T   T   T
  0.5070056205149598  0.4002237422903008  0.3337747975285197   T   T   T
  0.7599738338381030  0.9058432698297167  0.3371992260920180   T   T   T
  0.7050820177885271  0.5524306095710827  0.4147239372860696   T   T   T
  0.0244000009999965  0.1725499900000003  0.0000000000000000   F   F   F
  0.2743999890000026  0.6725500209999993  0.0000000000000000   F   F   F
  0.5243999930000030  0.1725499900000003  0.0000000000000000   F   F   F
  0.7743999890000026  0.6725500209999993  0.0000000000000000   F   F   F
  0.2145499989999990  0.4315699679999980  0.0158100000000019   F   F   F
  0.4645500080000033  0.9315699610000010  0.0158100000000019   F   F   F
  0.7145500780000020  0.4315699679999980  0.0158100000000019   F   F   F
  0.9645500390000024  0.9315699610000010  0.0158100000000019   F   F   F
  0.2067299980000001  0.8909299700000020  0.0249000009999989   F   F   F
  0.4567300049999972  0.3909299780000026  0.0249000009999989   F   F   F
  0.7067299659999975  0.8909299700000020  0.0249000009999989   F   F   F
  0.9567300360000033  0.3909299780000026  0.0249000009999989   F   F   F
  0.1974799959999984  0.2260999960000021  0.0441799990000007   F   F   F
  0.4474800229999971  0.7261000270000011  0.0441799990000007   F   F   F
  0.6974800269999974  0.2260999960000021  0.0441799990000007   F   F   F
  0.9474799919999981  0.7261000270000011  0.0441799990000007   F   F   F
  0.1105399989999967  0.6752399410000010  0.0615799970000026   F   F   F
  0.3605400160000016  0.1752399880000013  0.0615799970000026   F   F   F
  0.6105399750000018  0.6752399410000010  0.0615799970000026   F   F   F
  0.8605399850000026  0.1752399880000013  0.0615799970000026   F   F   F
  0.1012899990000022  0.0104099989999966  0.0808599969999975   F   F   F
  0.3512900010000024  0.5104099989999966  0.0808599969999975   F   F   F
  0.6012899750000003  0.0104099989999966  0.0808599969999975   F   F   F
  0.8512899380000007  0.5104099989999966  0.0808599969999975   F   F   F
  0.0934799970000029  0.4697599980000007  0.0899500009999983   F   F   F
  0.3434799950000027  0.9697599510000003  0.0899500009999983   F   F   F
  0.5934800050000035  0.4697599980000007  0.0899500009999983   F   F   F
  0.8434799639999966  0.9697599510000003  0.0899500009999983   F   F   F
  0.0336199999999991  0.2287800049999973  0.1057599960000033   F   F   F
  0.2836199919999984  0.7287799770000021  0.1057599960000033   F   F   F
  0.5336199679999964  0.2287800049999973  0.1057599960000033   F   F   F
  0.7836200229999974  0.7287799770000021  0.1057599960000033   F   F   F
  0.0453034607779585  0.8324304019345021  0.1338028452250484   T   T   T
  0.2960965278779426  0.3339562682639183  0.1334110629483263   T   T   T
  0.5461132467853460  0.8340124134803375  0.1333007350412032   T   T   T
  0.7955034272418402  0.3327552530532785  0.1338355019905322   T   T   T
  0.2314317762518314  0.0932242591000900  0.1460819212962576   T   T   T
  0.4814505468848438  0.5934580360610937  0.1465310786258485   T   T   T
  0.7317272459472193  0.0936218277338128  0.1469050691486871   T   T   T
  0.9818869759394033  0.5933344631946582  0.1469730363726853   T   T   T
  0.2255433950072856  0.5523560059116974  0.1604443085453440   T   T   T
  0.4762153193609535  0.0508628621759257  0.1606337018065673   T   T   T
  0.7249765395873666  0.5516922183536295  0.1606345060184111   T   T   T
  0.9751660339214681  0.0521649126567496  0.1607238670517077   T   T   T
  0.2150246869034405  0.8901931928929940  0.1810723003313015   T   T   T
  0.4644206028700495  0.3891977317437423  0.1801771364963329   T   T   T
  0.7150380188261636  0.8886776160551548  0.1808972669440649   T   T   T
  0.9653355352987845  0.3901615900559250  0.1815953647075048   T   T   T
  0.1300134555425245  0.3348855681587537  0.1923473025942712   T   T   T
  0.3788533880359921  0.8350328879892999  0.1931049561577254   T   T   T
  0.6283589911517282  0.3350073850590292  0.1944896689523148   T   T   T
  0.8796911768095654  0.8361970470601889  0.1939539141839077   T   T   T
  0.1176672516698645  0.6709417941786384  0.2149623902711753   T   T   T
  0.3671046082527880  0.1693478886282165  0.2127015643483148   T   T   T
  0.6180582055993113  0.6707476474339416  0.2133648562249633   T   T   T
  0.8678466631051123  0.1694943659672390  0.2161727990629672   T   T   T
  0.1156341125255977  0.1300866536169138  0.2237070520514166   T   T   T
  0.3639463369099190  0.6308264761938389  0.2239862820647573   T   T   T
  0.6149283902330254  0.1310495324780163  0.2248837692319441   T   T   T
  0.8641161391464678  0.6316803485998861  0.2249284806296288   T   T   T
  0.0471881364914353  0.8930383024448147  0.2399256491333048   T   T   T
  0.2973940166198119  0.3958739569314815  0.2405825982901746   T   T   T
  0.5473641368899607  0.8933076486584852  0.2399337797837333   T   T   T
  0.7975728414663266  0.3925715469911566  0.2406245763244570   T   T   T
  0.0696140462061194  0.4919987493302571  0.2687944114790710   T   T   T
  0.3153862364613715  0.9921174248657039  0.2683692882288611   T   T   T
  0.5597090357262076  0.4937707236959739  0.2682305312710795   T   T   T
  0.8098393677078732  0.9931389971690976  0.2686151440945537   T   T   T
  0.2516577816449939  0.7504419583350952  0.2825864700706902   T   T   T
  0.4971263455358610  0.2497548971458770  0.2809660114448036   T   T   T
  0.7488516632270432  0.7470407656769140  0.2833573935354607   T   T   T
  0.0055782829455140  0.2511840352996018  0.2811484457864708   T   T   T
  0.2460058272469681  0.2139547724236479  0.2907336749872442   T   T   T
  0.4939878441522723  0.7124871180090153  0.2898859628376371   T   T   T
  0.7438668663491370  0.2149120193675671  0.2960103907820653   T   T   T
  0.9947242500687778  0.7107677633634424  0.2942317728454213   T   T   T
  0.2393708292190837  0.5542338559331412  0.3291011305564169   T   T   T
  0.4858765254992221  0.0523937960425158  0.3267721479789927   T   T   T
  0.7293276195418557  0.5444234485246469  0.3240149839047177   T   T   T
  0.9901481410608355  0.0555293320201002  0.3285039865575570   T   T   T
  0.1478012124026904  0.0038071063188099  0.3304828048735970   T   T   T
  0.3984613182256069  0.5052459713373310  0.3356907187789915   T   T   T
  0.6431340705348418  0.0001108653058068  0.3343277567274114   T   T   T
  0.8972770725595041  0.4997748726727025  0.3282668018151682   T   T   T
  0.1383482044879045  0.3202690274662174  0.3516543204215097   T   T   T
  0.3861230583997255  0.8187811436148849  0.3516906154302362   T   T   T
  0.6166690474084575  0.3096335370217389  0.3547946738856638   T   T   T
  0.8907094623495908  0.8375670537953965  0.3428679589454973   T   T   T
  0.1330635700276233  0.7993753082446062  0.3564006722085580   T   T   T
  0.3805664561579860  0.2991244910566095  0.3550931585479233   T   T   T
  0.6268317227458553  0.7939282155957699  0.3549753904501856   T   T   T
  0.8917188244869934  0.2922644455275858  0.3554190557157213   T   T   T
  0.0668371421187857  0.5422792809179100  0.3750497615104820   T   T   T
  0.3164020349004133  0.0428860612100550  0.3746099796604483   T   T   T
  0.5782139986222461  0.5443550162751194  0.3774501040981022   T   T   T
  0.8155632188292827  0.0417571861187085  0.3752127210903566   T   T   T
  0.7991959429308864  0.6738015844210636  0.4022744989903302   T   T   T
  0.7606765645400415  0.4166378636444961  0.4158865669186156   T   T   T
  0.5805361508620805  0.3269619420864416  0.4537527056643285   T   T   T
  0.4928227722550815  0.4856413662154537  0.4849569304987753   T   T   T
  0.4203814663695269  0.2505451581806071  0.5289488186495461   T   T   T
  0.5007999778069845  0.4405791118743991  0.5543844842705354   T   T   T
  0.4625692911384149  0.1745028839557463  0.4732480919963677   T   T   T
  0.4111763449934216  0.2954392065845468  0.4588242502812889   T   T   T
  0.5878221566230124  0.2852947482224337  0.5234276175825912   T   T   T
  0.6764588751967437  0.4655893867432184  0.5389016527053911   T   T   T
  0.7072746565371730  0.6571009244656025  0.5262798795912289   T   T   T
  0.6074483687325056  0.7579170132878161  0.4628997677369284   T   T   T
  0.5603376082409781  0.7526602424023068  0.5304402029646624   T   T   T
  0.5158385490483610  0.6606486130940965  0.4776172722469809   T   T   T
  0.4550768581764899  0.2580777736379645  0.4885992856609462   T   T   T
  0.5356656622730327  0.4438083362828777  0.5137221175518079   T   T   T
  0.5449148020501440  0.3254427388793317  0.4939923946116167   T   T   T
  0.6227721946920468  0.5108706910301493  0.5220944966641525   T   T   T
  0.6408434949241339  0.6209131754348505  0.5140807125143425   T   T   T
  0.5774435364007360  0.7013022080194418  0.4948735658413739   T   T   T
 
  0.00000000E+00  0.00000000E+00  0.00000000E+00
  0.00000000E+00  0.00000000E+00  0.00000000E+00
  0.00000000E+00  0.00000000E+00  0.00000000E+00
  0.00000000E+00  0.00000000E+00  0.00000000E+00
  0.00000000E+00  0.00000000E+00  0.00000000E+00
  0.00000000E+00  0.00000000E+00  0.00000000E+00
  0.00000000E+00  0.00000000E+00  0.00000000E+00
  0.00000000E+00  0.00000000E+00  0.00000000E+00
  0.00000000E+00  0.00000000E+00  0.00000000E+00
  0.00000000E+00  0.00000000E+00  0.00000000E+00
  0.00000000E+00  0.00000000E+00  0.00000000E+00
  0.00000000E+00  0.00000000E+00  0.00000000E+00
  0.00000000E+00  0.00000000E+00  0.00000000E+00
  0.00000000E+00  0.00000000E+00  0.00000000E+00
  0.00000000E+00  0.00000000E+00  0.00000000E+00
  0.00000000E+00  0.00000000E+00  0.00000000E+00
  0.00000000E+00  0.00000000E+00  0.00000000E+00
  0.00000000E+00  0.00000000E+00  0.00000000E+00
  0.00000000E+00  0.00000000E+00  0.00000000E+00
  0.00000000E+00  0.00000000E+00  0.00000000E+00
  0.00000000E+00  0.00000000E+00  0.00000000E+00
  0.00000000E+00  0.00000000E+00  0.00000000E+00
  0.00000000E+00  0.00000000E+00  0.00000000E+00
  0.00000000E+00  0.00000000E+00  0.00000000E+00
  0.00000000E+00  0.00000000E+00  0.00000000E+00
  0.00000000E+00  0.00000000E+00  0.00000000E+00
  0.00000000E+00  0.00000000E+00  0.00000000E+00
  0.00000000E+00  0.00000000E+00  0.00000000E+00
  0.00000000E+00  0.00000000E+00  0.00000000E+00
  0.00000000E+00  0.00000000E+00  0.00000000E+00
  0.00000000E+00  0.00000000E+00  0.00000000E+00
  0.00000000E+00  0.00000000E+00  0.00000000E+00
  0.00000000E+00  0.00000000E+00  0.00000000E+00
  0.00000000E+00  0.00000000E+00  0.00000000E+00
  0.00000000E+00  0.00000000E+00  0.00000000E+00
  0.00000000E+00  0.00000000E+00  0.00000000E+00
  0.00000000E+00  0.00000000E+00  0.00000000E+00
  0.00000000E+00  0.00000000E+00  0.00000000E+00
  0.00000000E+00  0.00000000E+00  0.00000000E+00
  0.00000000E+00  0.00000000E+00  0.00000000E+00
  0.00000000E+00  0.00000000E+00  0.00000000E+00
  0.00000000E+00  0.00000000E+00  0.00000000E+00
  0.00000000E+00  0.00000000E+00  0.00000000E+00
  0.00000000E+00  0.00000000E+00  0.00000000E+00
  0.00000000E+00  0.00000000E+00  0.00000000E+00
  0.00000000E+00  0.00000000E+00  0.00000000E+00
  0.00000000E+00  0.00000000E+00  0.00000000E+00
  0.00000000E+00  0.00000000E+00  0.00000000E+00
  0.00000000E+00  0.00000000E+00  0.00000000E+00
  0.00000000E+00  0.00000000E+00  0.00000000E+00
  0.00000000E+00  0.00000000E+00  0.00000000E+00
  0.00000000E+00  0.00000000E+00  0.00000000E+00
  0.00000000E+00  0.00000000E+00  0.00000000E+00
  0.00000000E+00  0.00000000E+00  0.00000000E+00
  0.00000000E+00  0.00000000E+00  0.00000000E+00
  0.00000000E+00  0.00000000E+00  0.00000000E+00
  0.00000000E+00  0.00000000E+00  0.00000000E+00
  0.00000000E+00  0.00000000E+00  0.00000000E+00
  0.00000000E+00  0.00000000E+00  0.00000000E+00
  0.00000000E+00  0.00000000E+00  0.00000000E+00
  0.00000000E+00  0.00000000E+00  0.00000000E+00
  0.00000000E+00  0.00000000E+00  0.00000000E+00
  0.00000000E+00  0.00000000E+00  0.00000000E+00
  0.00000000E+00  0.00000000E+00  0.00000000E+00
  0.00000000E+00  0.00000000E+00  0.00000000E+00
  0.00000000E+00  0.00000000E+00  0.00000000E+00
  0.00000000E+00  0.00000000E+00  0.00000000E+00
  0.00000000E+00  0.00000000E+00  0.00000000E+00
  0.00000000E+00  0.00000000E+00  0.00000000E+00
  0.00000000E+00  0.00000000E+00  0.00000000E+00
  0.00000000E+00  0.00000000E+00  0.00000000E+00
  0.00000000E+00  0.00000000E+00  0.00000000E+00
  0.00000000E+00  0.00000000E+00  0.00000000E+00
  0.00000000E+00  0.00000000E+00  0.00000000E+00
  0.00000000E+00  0.00000000E+00  0.00000000E+00
  0.00000000E+00  0.00000000E+00  0.00000000E+00
  0.00000000E+00  0.00000000E+00  0.00000000E+00
  0.00000000E+00  0.00000000E+00  0.00000000E+00
  0.00000000E+00  0.00000000E+00  0.00000000E+00
  0.00000000E+00  0.00000000E+00  0.00000000E+00
  0.00000000E+00  0.00000000E+00  0.00000000E+00
  0.00000000E+00  0.00000000E+00  0.00000000E+00
  0.00000000E+00  0.00000000E+00  0.00000000E+00
  0.00000000E+00  0.00000000E+00  0.00000000E+00
  0.00000000E+00  0.00000000E+00  0.00000000E+00
  0.00000000E+00  0.00000000E+00  0.00000000E+00
  0.00000000E+00  0.00000000E+00  0.00000000E+00
  0.00000000E+00  0.00000000E+00  0.00000000E+00
  0.00000000E+00  0.00000000E+00  0.00000000E+00
  0.00000000E+00  0.00000000E+00  0.00000000E+00
  0.00000000E+00  0.00000000E+00  0.00000000E+00
  0.00000000E+00  0.00000000E+00  0.00000000E+00
  0.00000000E+00  0.00000000E+00  0.00000000E+00
  0.00000000E+00  0.00000000E+00  0.00000000E+00
  0.00000000E+00  0.00000000E+00  0.00000000E+00
  0.00000000E+00  0.00000000E+00  0.00000000E+00
  0.00000000E+00  0.00000000E+00  0.00000000E+00
  0.00000000E+00  0.00000000E+00  0.00000000E+00
  0.00000000E+00  0.00000000E+00  0.00000000E+00
  0.00000000E+00  0.00000000E+00  0.00000000E+00
  0.00000000E+00  0.00000000E+00  0.00000000E+00
  0.00000000E+00  0.00000000E+00  0.00000000E+00
  0.00000000E+00  0.00000000E+00  0.00000000E+00
  0.00000000E+00  0.00000000E+00  0.00000000E+00
  0.00000000E+00  0.00000000E+00  0.00000000E+00
  0.00000000E+00  0.00000000E+00  0.00000000E+00
  0.00000000E+00  0.00000000E+00  0.00000000E+00
  0.00000000E+00  0.00000000E+00  0.00000000E+00
  0.00000000E+00  0.00000000E+00  0.00000000E+00
  0.00000000E+00  0.00000000E+00  0.00000000E+00
  0.00000000E+00  0.00000000E+00  0.00000000E+00
  0.00000000E+00  0.00000000E+00  0.00000000E+00
  0.00000000E+00  0.00000000E+00  0.00000000E+00
  0.00000000E+00  0.00000000E+00  0.00000000E+00
  0.00000000E+00  0.00000000E+00  0.00000000E+00
  0.00000000E+00  0.00000000E+00  0.00000000E+00
  0.00000000E+00  0.00000000E+00  0.00000000E+00
  0.00000000E+00  0.00000000E+00  0.00000000E+00
  0.00000000E+00  0.00000000E+00  0.00000000E+00
  0.00000000E+00  0.00000000E+00  0.00000000E+00
  0.00000000E+00  0.00000000E+00  0.00000000E+00
  0.00000000E+00  0.00000000E+00  0.00000000E+00
  0.00000000E+00  0.00000000E+00  0.00000000E+00
  0.00000000E+00  0.00000000E+00  0.00000000E+00
  0.00000000E+00  0.00000000E+00  0.00000000E+00
  0.00000000E+00  0.00000000E+00  0.00000000E+00
  0.00000000E+00  0.00000000E+00  0.00000000E+00
  0.00000000E+00  0.00000000E+00  0.00000000E+00
  0.00000000E+00  0.00000000E+00  0.00000000E+00
  0.00000000E+00  0.00000000E+00  0.00000000E+00
  0.00000000E+00  0.00000000E+00  0.00000000E+00
  0.00000000E+00  0.00000000E+00  0.00000000E+00
  0.00000000E+00  0.00000000E+00  0.00000000E+00
  0.00000000E+00  0.00000000E+00  0.00000000E+00
  0.00000000E+00  0.00000000E+00  0.00000000E+00
  0.00000000E+00  0.00000000E+00  0.00000000E+00
  0.00000000E+00  0.00000000E+00  0.00000000E+00
  0.00000000E+00  0.00000000E+00  0.00000000E+00
  0.00000000E+00  0.00000000E+00  0.00000000E+00
  0.00000000E+00  0.00000000E+00  0.00000000E+00
  0.00000000E+00  0.00000000E+00  0.00000000E+00
  0.00000000E+00  0.00000000E+00  0.00000000E+00
  0.00000000E+00  0.00000000E+00  0.00000000E+00
  0.00000000E+00  0.00000000E+00  0.00000000E+00
  0.00000000E+00  0.00000000E+00  0.00000000E+00
  0.00000000E+00  0.00000000E+00  0.00000000E+00
  0.00000000E+00  0.00000000E+00  0.00000000E+00
  0.00000000E+00  0.00000000E+00  0.00000000E+00
  0.00000000E+00  0.00000000E+00  0.00000000E+00
  0.00000000E+00  0.00000000E+00  0.00000000E+00
  0.00000000E+00  0.00000000E+00  0.00000000E+00
  0.00000000E+00  0.00000000E+00  0.00000000E+00
  0.00000000E+00  0.00000000E+00  0.00000000E+00
  0.00000000E+00  0.00000000E+00  0.00000000E+00
  0.00000000E+00  0.00000000E+00  0.00000000E+00
  0.00000000E+00  0.00000000E+00  0.00000000E+00
  0.00000000E+00  0.00000000E+00  0.00000000E+00
  0.00000000E+00  0.00000000E+00  0.00000000E+00
  0.00000000E+00  0.00000000E+00  0.00000000E+00
  0.00000000E+00  0.00000000E+00  0.00000000E+00
  0.00000000E+00  0.00000000E+00  0.00000000E+00
  0.00000000E+00  0.00000000E+00  0.00000000E+00
  0.00000000E+00  0.00000000E+00  0.00000000E+00
  0.00000000E+00  0.00000000E+00  0.00000000E+00
  0.00000000E+00  0.00000000E+00  0.00000000E+00
